Ti  O                                   
   1.00000000000000     
    12.8783825809832297    0.0000000000000000    0.0000000000000000
     0.0000000000000000   11.6868443333809928    0.0000000000000000
     0.0000000000000000    0.0000000000000000   30.4044782389966777
   Ti   O 
    80   159
Selective dynamics
Direct
  0.5000000000000000  0.1250000000000000  0.2882156950737382   F   F   F
  0.7500000000000000  0.0000000000000000  0.2882156950737382   F   F   F
  0.7500000000000000  0.1250000000000000  0.3941078475368656   F   F   F
  0.5000000000000000  0.0000000000000000  0.3941078475368656   F   F   F
  0.5000000000000000  0.1250000000000000  0.5000000000000000   F   F   F
  0.7500000000000000  0.0000000000000000  0.5000000000000000   F   F   F
  0.7500005244578034  0.1249790747969541  0.6037832886968459   T   T   T
  0.5000004102201601  0.0000048163292519  0.6094980417815776   T   T   T
  0.5000192488477353  0.1250182138105629  0.7184349940951762   T   T   T
  0.2500001534219862  0.0000084859392331  0.7071919090569878   T   T   T
  0.5000000000000000  0.3750000000000000  0.2882156950737382   F   F   F
  0.7500000000000000  0.2500000000000000  0.2882156950737382   F   F   F
  0.7500000000000000  0.3750000000000000  0.3941078475368656   F   F   F
  0.5000000000000000  0.2500000000000000  0.3941078475368656   F   F   F
  0.5000000000000000  0.3750000000000000  0.5000000000000000   F   F   F
  0.7500000000000000  0.2500000000000000  0.5000000000000000   F   F   F
  0.7500000824575821  0.3750200536851409  0.6037831776690297   T   T   T
  0.5000001019431224  0.2500022702146438  0.6095078387675557   T   T   T
  0.4999806078766511  0.3749864772968436  0.7184366806935145   T   T   T
  0.2499996055045486  0.2499942760270031  0.7071278670625532   T   T   T
  0.5000000000000000  0.6250000000000000  0.2882156950737382   F   F   F
  0.7500000000000000  0.5000000000000000  0.2882156950737382   F   F   F
  0.7500000000000000  0.6250000000000000  0.3941078475368656   F   F   F
  0.5000000000000000  0.5000000000000000  0.3941078475368656   F   F   F
  0.5000000000000000  0.6250000000000000  0.5000000000000000   F   F   F
  0.7500000000000000  0.5000000000000000  0.5000000000000000   F   F   F
  0.7499994589709686  0.6249800647227275  0.6037836344568603   T   T   T
  0.5000000883341187  0.5000040458285753  0.6094981217842061   T   T   T
  0.5000024798067102  0.6250205501725077  0.7184355537045235   T   T   T
  0.2499970913557448  0.5000046478725864  0.7071918031818214   T   T   T
  0.5000000000000000  0.8750000000000000  0.2882156950737382   F   F   F
  0.7500000000000000  0.7500000000000000  0.2882156950737382   F   F   F
  0.7500000000000000  0.8750000000000000  0.3941078475368656   F   F   F
  0.5000000000000000  0.7500000000000000  0.3941078475368656   F   F   F
  0.5000000000000000  0.8750000000000000  0.5000000000000000   F   F   F
  0.7500000000000000  0.7500000000000000  0.5000000000000000   F   F   F
  0.7500018979067917  0.8750198139445331  0.6037832613050540   T   T   T
  0.5000004676961112  0.7500026788223337  0.6095069691469135   T   T   T
  0.4999830760011221  0.8749861082206039  0.7184355834392733   T   T   T
  0.2499975131232119  0.7499951131098257  0.7071275609245262   T   T   T
  0.0000000000000000  0.1250000000000000  0.2882156950737382   F   F   F
  0.2500000000000000  0.0000000000000000  0.2882156950737382   F   F   F
  0.2500000000000000  0.1250000000000000  0.3941078475368656   F   F   F
  0.0000000000000000  0.0000000000000000  0.3941078475368656   F   F   F
  0.0000000000000000  0.1250000000000000  0.5000000000000000   F   F   F
  0.2500000000000000  0.0000000000000000  0.5000000000000000   F   F   F
  0.2499996807482248  0.1249820528201582  0.6037833293873263   T   T   T
  0.9999997112819372  0.0000018819412873  0.6094976989851943   T   T   T
  0.9999805003927307  0.1250187031802383  0.7184359062827355   T   T   T
  0.7499995616257422  0.9999922192902204  0.7071919843532442   T   T   T
  0.0000000000000000  0.3750000000000000  0.2882156950737382   F   F   F
  0.2500000000000000  0.2500000000000000  0.2882156950737382   F   F   F
  0.2500000000000000  0.3750000000000000  0.3941078475368656   F   F   F
  0.0000000000000000  0.2500000000000000  0.3941078475368656   F   F   F
  0.0000000000000000  0.3750000000000000  0.5000000000000000   F   F   F
  0.2500000000000000  0.2500000000000000  0.5000000000000000   F   F   F
  0.2499998559098628  0.3750173127408871  0.6037832278226247   T   T   T
  0.9999999176753107  0.2500017624113440  0.6095080955140446   T   T   T
  0.0000155727869213  0.3749808112754565  0.7184355806907732   T   T   T
  0.7499989850124180  0.2500061111911691  0.7071273085574887   T   T   T
  0.0000000000000000  0.6250000000000000  0.2882156950737382   F   F   F
  0.2500000000000000  0.5000000000000000  0.2882156950737382   F   F   F
  0.2500000000000000  0.6250000000000000  0.3941078475368656   F   F   F
  0.0000000000000000  0.5000000000000000  0.3941078475368656   F   F   F
  0.0000000000000000  0.6250000000000000  0.5000000000000000   F   F   F
  0.2500000000000000  0.5000000000000000  0.5000000000000000   F   F   F
  0.2500007762458978  0.6249813792247281  0.6037829890240758   T   T   T
  0.9999999241065254  0.5000025613608159  0.6094977786403746   T   T   T
  0.9999799513859173  0.6250179292787408  0.7184363387765131   T   T   T
  0.7499954593274225  0.4999926916039996  0.7071918639903316   T   T   T
  0.0000000000000000  0.8750000000000000  0.2882156950737382   F   F   F
  0.2500000000000000  0.7500000000000000  0.2882156950737382   F   F   F
  0.2500000000000000  0.8750000000000000  0.3941078475368656   F   F   F
  0.0000000000000000  0.7500000000000000  0.3941078475368656   F   F   F
  0.0000000000000000  0.8750000000000000  0.5000000000000000   F   F   F
  0.2500000000000000  0.7500000000000000  0.5000000000000000   F   F   F
  0.2499981844135206  0.8750170651255758  0.6037833060710085   T   T   T
  0.9999999237542454  0.7500000846332711  0.6095089254983250   T   T   T
  0.0000155426621973  0.8749816647209627  0.7184355887078908   T   T   T
  0.7499975410826210  0.7500020660375171  0.7071278768590048   T   T   T
  0.3480750355150803  0.1250000000000000  0.2882156950737382   F   F   F
  0.6519249644849197  0.1250000000000000  0.2882156950737382   F   F   F
  0.5000000000000000  0.0000000000000000  0.2466741886193731   F   F   F
  0.5000000000000000  0.0000000000000000  0.3297572015280963   F   F   F
  0.5980750355150803  0.1250000000000000  0.3941078475368656   F   F   F
  0.4019249644849197  0.1250000000000000  0.3941078475368656   F   F   F
  0.7500000000000000  0.0000000000000000  0.3525663410825075   F   F   F
  0.7500000000000000  0.0000000000000000  0.4356493539912307   F   F   F
  0.3480750355150803  0.1250000000000000  0.5000000000000000   F   F   F
  0.6519249644849197  0.1250000000000000  0.5000000000000000   F   F   F
  0.5000000000000000  0.0000000000000000  0.4584584935456419   F   F   F
  0.5000000000000000  0.0000000000000000  0.5415415064543581   F   F   F
  0.6001169050606450  0.1250193554667334  0.6063085798819472   T   T   T
  0.3998835603364128  0.1250199969876107  0.6063083595620569   T   T   T
  0.7500004991108753  0.9999987929693859  0.5647975530142801   T   T   T
  0.2500010504466914  0.9999987107891002  0.6480279114324787   T   T   T
  0.3440255129660770  0.1250095127345645  0.7174468647445025   T   T   T
  0.6559765490907168  0.1250098648193116  0.7174483654473960   T   T   T
  0.5000003467440237  0.9999992340107298  0.6703737127649418   T   T   T
  0.5000009185736047  0.9999989327311170  0.7535708603109015   T   T   T
  0.3480750355150803  0.3750000000000000  0.2882156950737382   F   F   F
  0.6519249644849197  0.3750000000000000  0.2882156950737382   F   F   F
  0.5000000000000000  0.2500000000000000  0.2466741886193731   F   F   F
  0.5000000000000000  0.2500000000000000  0.3297572015280963   F   F   F
  0.5980750355150803  0.3750000000000000  0.3941078475368656   F   F   F
  0.4019249644849197  0.3750000000000000  0.3941078475368656   F   F   F
  0.7500000000000000  0.2500000000000000  0.3525663410825075   F   F   F
  0.7500000000000000  0.2500000000000000  0.4356493539912307   F   F   F
  0.3480750355150803  0.3750000000000000  0.5000000000000000   F   F   F
  0.6519249644849197  0.3750000000000000  0.5000000000000000   F   F   F
  0.5000000000000000  0.2500000000000000  0.4584584935456419   F   F   F
  0.5000000000000000  0.2500000000000000  0.5415415064543581   F   F   F
  0.6001171204484379  0.3749798381739495  0.6063083102146010   T   T   T
  0.3998834300008411  0.3749797979335270  0.6063085553397087   T   T   T
  0.7500005015514972  0.2499998782334316  0.5648005631650221   T   T   T
  0.2499999204079160  0.2500001057994012  0.6479913789138863   T   T   T
  0.3440210499078447  0.3749871770639217  0.7174488997315436   T   T   T
  0.6559717638309550  0.3749866875132497  0.7174448826222815   T   T   T
  0.4999998578162561  0.2499987152702943  0.6703860128061763   T   T   T
  0.5000007224450442  0.2499983287040664  0.7535785756334832   T   T   T
  0.3480750355150803  0.6250000000000000  0.2882156950737382   F   F   F
  0.6519249644849197  0.6250000000000000  0.2882156950737382   F   F   F
  0.5000000000000000  0.5000000000000000  0.2466741886193731   F   F   F
  0.5000000000000000  0.5000000000000000  0.3297572015280963   F   F   F
  0.5980750355150803  0.6250000000000000  0.3941078475368656   F   F   F
  0.4019249644849197  0.6250000000000000  0.3941078475368656   F   F   F
  0.7500000000000000  0.5000000000000000  0.3525663410825075   F   F   F
  0.7500000000000000  0.5000000000000000  0.4356493539912307   F   F   F
  0.3480750355150803  0.6250000000000000  0.5000000000000000   F   F   F
  0.6519249644849197  0.6250000000000000  0.5000000000000000   F   F   F
  0.5000000000000000  0.5000000000000000  0.4584584935456419   F   F   F
  0.5000000000000000  0.5000000000000000  0.5415415064543581   F   F   F
  0.6001159684858166  0.6250203464825930  0.6063082324569677   T   T   T
  0.3998838737433772  0.6250206799950462  0.6063082853618837   T   T   T
  0.7500007299723208  0.4999988462480900  0.5647973766822361   T   T   T
  0.2500002466545368  0.4999989824370630  0.6480277961760663   T   T   T
  0.3440241457874293  0.6250104467627295  0.7174469765887466   T   T   T
  0.6559747538816367  0.6250093988504872  0.7174475205987747   T   T   T
  0.4999978820362259  0.4999997787643338  0.6703729992675989   T   T   T
  0.3480750355150803  0.8750000000000000  0.2882156950737382   F   F   F
  0.6519249644849197  0.8750000000000000  0.2882156950737382   F   F   F
  0.5000000000000000  0.7500000000000000  0.2466741886193731   F   F   F
  0.5000000000000000  0.7500000000000000  0.3297572015280963   F   F   F
  0.5980750355150803  0.8750000000000000  0.3941078475368656   F   F   F
  0.4019249644849197  0.8750000000000000  0.3941078475368656   F   F   F
  0.7500000000000000  0.7500000000000000  0.3525663410825075   F   F   F
  0.7500000000000000  0.7500000000000000  0.4356493539912307   F   F   F
  0.3480750355150803  0.8750000000000000  0.5000000000000000   F   F   F
  0.6519249644849197  0.8750000000000000  0.5000000000000000   F   F   F
  0.5000000000000000  0.7500000000000000  0.4584584935456419   F   F   F
  0.5000000000000000  0.7500000000000000  0.5415415064543581   F   F   F
  0.6001165472523411  0.8749797231907337  0.6063086153695423   T   T   T
  0.3998837605482919  0.8749798396970476  0.6063086193324381   T   T   T
  0.7500004103984210  0.7499993918312811  0.5648006727557231   T   T   T
  0.2499999053232500  0.7500002968376123  0.6479915011692938   T   T   T
  0.3440220781574226  0.8749864170809971  0.7174479909218832   T   T   T
  0.6559713312668052  0.8749872235771790  0.7174454279248224   T   T   T
  0.4999989399473250  0.7499995708458584  0.6703870848396605   T   T   T
  0.5000000337532526  0.7500007534935378  0.7535801059426177   T   T   T
  0.8480750355150803  0.1250000000000000  0.2882156950737382   F   F   F
  0.1519249644849197  0.1250000000000000  0.2882156950737382   F   F   F
  0.0000000000000000  0.0000000000000000  0.2466741886193731   F   F   F
  0.0000000000000000  0.0000000000000000  0.3297572015280963   F   F   F
  0.0980750355150803  0.1250000000000000  0.3941078475368656   F   F   F
  0.9019249644849197  0.1250000000000000  0.3941078475368656   F   F   F
  0.2500000000000000  0.0000000000000000  0.3525663410825075   F   F   F
  0.2500000000000000  0.0000000000000000  0.4356493539912307   F   F   F
  0.8480750355150803  0.1250000000000000  0.5000000000000000   F   F   F
  0.1519249644849197  0.1250000000000000  0.5000000000000000   F   F   F
  0.0000000000000000  0.0000000000000000  0.4584584935456419   F   F   F
  0.0000000000000000  0.0000000000000000  0.5415415064543581   F   F   F
  0.1001172326116944  0.1250201449529484  0.6063086825367989   T   T   T
  0.8998839762219291  0.1250199588422092  0.6063087216066947   T   T   T
  0.2500000634799306  0.9999990143983410  0.5647973080174395   T   T   T
  0.7500008542827530  0.9999994597964132  0.6480274968788109   T   T   T
  0.8440233914988440  0.1250096118818149  0.7174479140130927   T   T   T
  0.1559714490497939  0.1250088472219346  0.7174457868980397   T   T   T
  0.9999996755400318  0.9999985390892050  0.6703738771344518   T   T   T
  0.9999998854048684  0.9999995466559994  0.7535709422932513   T   T   T
  0.8480750355150803  0.3750000000000000  0.2882156950737382   F   F   F
  0.1519249644849197  0.3750000000000000  0.2882156950737382   F   F   F
  0.0000000000000000  0.2500000000000000  0.2466741886193731   F   F   F
  0.0000000000000000  0.2500000000000000  0.3297572015280963   F   F   F
  0.0980750355150803  0.3750000000000000  0.3941078475368656   F   F   F
  0.9019249644849197  0.3750000000000000  0.3941078475368656   F   F   F
  0.2500000000000000  0.2500000000000000  0.3525663410825075   F   F   F
  0.2500000000000000  0.2500000000000000  0.4356493539912307   F   F   F
  0.8480750355150803  0.3750000000000000  0.5000000000000000   F   F   F
  0.1519249644849197  0.3750000000000000  0.5000000000000000   F   F   F
  0.0000000000000000  0.2500000000000000  0.4584584935456419   F   F   F
  0.0000000000000000  0.2500000000000000  0.5415415064543581   F   F   F
  0.1001171226891557  0.3749806782069811  0.6063087286802968   T   T   T
  0.8998832232121359  0.3749804375076735  0.6063085219905631   T   T   T
  0.2500000967305667  0.2500000696333800  0.5648007289257606   T   T   T
  0.7500005396951011  0.2499992340942967  0.6479908809631567   T   T   T
  0.8440259265009686  0.3749869501796681  0.7174463310339050   T   T   T
  0.1559774937791616  0.3749867845292414  0.7174492235412728   T   T   T
  0.0000001971865302  0.2499991126289771  0.6703861332212497   T   T   T
  0.0000005087505954  0.2499989195272647  0.7535784414805846   T   T   T
  0.8480750355150803  0.6250000000000000  0.2882156950737382   F   F   F
  0.1519249644849197  0.6250000000000000  0.2882156950737382   F   F   F
  0.0000000000000000  0.5000000000000000  0.2466741886193731   F   F   F
  0.0000000000000000  0.5000000000000000  0.3297572015280963   F   F   F
  0.0980750355150803  0.6250000000000000  0.3941078475368656   F   F   F
  0.9019249644849197  0.6250000000000000  0.3941078475368656   F   F   F
  0.2500000000000000  0.5000000000000000  0.3525663410825075   F   F   F
  0.2500000000000000  0.5000000000000000  0.4356493539912307   F   F   F
  0.8480750355150803  0.6250000000000000  0.5000000000000000   F   F   F
  0.1519249644849197  0.6250000000000000  0.5000000000000000   F   F   F
  0.0000000000000000  0.5000000000000000  0.4584584935456419   F   F   F
  0.0000000000000000  0.5000000000000000  0.5415415064543581   F   F   F
  0.1001167205958851  0.6250191838099539  0.6063087165639800   T   T   T
  0.8998841497445653  0.6250190240691609  0.6063087586972813   T   T   T
  0.2499999539069790  0.4999989071759217  0.5647974944704686   T   T   T
  0.7499993717826570  0.4999989112605121  0.6480271420986270   T   T   T
  0.8440230659504095  0.6250088003598719  0.7174480641251151   T   T   T
  0.1559725221840296  0.6250097126398941  0.7174460636957605   T   T   T
  0.0000002567614956  0.4999988526222410  0.6703735573566334   T   T   T
  0.0000003207904484  0.4999999821842636  0.7535708342167808   T   T   T
  0.8480750355150803  0.8750000000000000  0.2882156950737382   F   F   F
  0.1519249644849197  0.8750000000000000  0.2882156950737382   F   F   F
  0.0000000000000000  0.7500000000000000  0.2466741886193731   F   F   F
  0.0000000000000000  0.7500000000000000  0.3297572015280963   F   F   F
  0.0980750355150803  0.8750000000000000  0.3941078475368656   F   F   F
  0.9019249644849197  0.8750000000000000  0.3941078475368656   F   F   F
  0.2500000000000000  0.7500000000000000  0.3525663410825075   F   F   F
  0.2500000000000000  0.7500000000000000  0.4356493539912307   F   F   F
  0.8480750355150803  0.8750000000000000  0.5000000000000000   F   F   F
  0.1519249644849197  0.8750000000000000  0.5000000000000000   F   F   F
  0.0000000000000000  0.7500000000000000  0.4584584935456419   F   F   F
  0.0000000000000000  0.7500000000000000  0.5415415064543581   F   F   F
  0.1001177471395778  0.8749796702734400  0.6063088950366620   T   T   T
  0.8998836890092221  0.8749791958540811  0.6063084991756043   T   T   T
  0.2500001909804936  0.7499994895402295  0.5648009300965526   T   T   T
  0.7500005963249166  0.7499982668652692  0.6479909511965332   T   T   T
  0.8440259151114304  0.8749870719098709  0.7174468609430420   T   T   T
  0.1559781838299656  0.8749864324110206  0.7174491905361577   T   T   T
  0.0000003522949257  0.7499986983522007  0.6703866420095537   T   T   T
  0.0000009123142988  0.7499985780703113  0.7535783400594909   T   T   T
 
  0.00000000E+00  0.00000000E+00  0.00000000E+00
  0.00000000E+00  0.00000000E+00  0.00000000E+00
  0.00000000E+00  0.00000000E+00  0.00000000E+00
  0.00000000E+00  0.00000000E+00  0.00000000E+00
  0.00000000E+00  0.00000000E+00  0.00000000E+00
  0.00000000E+00  0.00000000E+00  0.00000000E+00
  0.00000000E+00  0.00000000E+00  0.00000000E+00
  0.00000000E+00  0.00000000E+00  0.00000000E+00
  0.00000000E+00  0.00000000E+00  0.00000000E+00
  0.00000000E+00  0.00000000E+00  0.00000000E+00
  0.00000000E+00  0.00000000E+00  0.00000000E+00
  0.00000000E+00  0.00000000E+00  0.00000000E+00
  0.00000000E+00  0.00000000E+00  0.00000000E+00
  0.00000000E+00  0.00000000E+00  0.00000000E+00
  0.00000000E+00  0.00000000E+00  0.00000000E+00
  0.00000000E+00  0.00000000E+00  0.00000000E+00
  0.00000000E+00  0.00000000E+00  0.00000000E+00
  0.00000000E+00  0.00000000E+00  0.00000000E+00
  0.00000000E+00  0.00000000E+00  0.00000000E+00
  0.00000000E+00  0.00000000E+00  0.00000000E+00
  0.00000000E+00  0.00000000E+00  0.00000000E+00
  0.00000000E+00  0.00000000E+00  0.00000000E+00
  0.00000000E+00  0.00000000E+00  0.00000000E+00
  0.00000000E+00  0.00000000E+00  0.00000000E+00
  0.00000000E+00  0.00000000E+00  0.00000000E+00
  0.00000000E+00  0.00000000E+00  0.00000000E+00
  0.00000000E+00  0.00000000E+00  0.00000000E+00
  0.00000000E+00  0.00000000E+00  0.00000000E+00
  0.00000000E+00  0.00000000E+00  0.00000000E+00
  0.00000000E+00  0.00000000E+00  0.00000000E+00
  0.00000000E+00  0.00000000E+00  0.00000000E+00
  0.00000000E+00  0.00000000E+00  0.00000000E+00
  0.00000000E+00  0.00000000E+00  0.00000000E+00
  0.00000000E+00  0.00000000E+00  0.00000000E+00
  0.00000000E+00  0.00000000E+00  0.00000000E+00
  0.00000000E+00  0.00000000E+00  0.00000000E+00
  0.00000000E+00  0.00000000E+00  0.00000000E+00
  0.00000000E+00  0.00000000E+00  0.00000000E+00
  0.00000000E+00  0.00000000E+00  0.00000000E+00
  0.00000000E+00  0.00000000E+00  0.00000000E+00
  0.00000000E+00  0.00000000E+00  0.00000000E+00
  0.00000000E+00  0.00000000E+00  0.00000000E+00
  0.00000000E+00  0.00000000E+00  0.00000000E+00
  0.00000000E+00  0.00000000E+00  0.00000000E+00
  0.00000000E+00  0.00000000E+00  0.00000000E+00
  0.00000000E+00  0.00000000E+00  0.00000000E+00
  0.00000000E+00  0.00000000E+00  0.00000000E+00
  0.00000000E+00  0.00000000E+00  0.00000000E+00
  0.00000000E+00  0.00000000E+00  0.00000000E+00
  0.00000000E+00  0.00000000E+00  0.00000000E+00
  0.00000000E+00  0.00000000E+00  0.00000000E+00
  0.00000000E+00  0.00000000E+00  0.00000000E+00
  0.00000000E+00  0.00000000E+00  0.00000000E+00
  0.00000000E+00  0.00000000E+00  0.00000000E+00
  0.00000000E+00  0.00000000E+00  0.00000000E+00
  0.00000000E+00  0.00000000E+00  0.00000000E+00
  0.00000000E+00  0.00000000E+00  0.00000000E+00
  0.00000000E+00  0.00000000E+00  0.00000000E+00
  0.00000000E+00  0.00000000E+00  0.00000000E+00
  0.00000000E+00  0.00000000E+00  0.00000000E+00
  0.00000000E+00  0.00000000E+00  0.00000000E+00
  0.00000000E+00  0.00000000E+00  0.00000000E+00
  0.00000000E+00  0.00000000E+00  0.00000000E+00
  0.00000000E+00  0.00000000E+00  0.00000000E+00
  0.00000000E+00  0.00000000E+00  0.00000000E+00
  0.00000000E+00  0.00000000E+00  0.00000000E+00
  0.00000000E+00  0.00000000E+00  0.00000000E+00
  0.00000000E+00  0.00000000E+00  0.00000000E+00
  0.00000000E+00  0.00000000E+00  0.00000000E+00
  0.00000000E+00  0.00000000E+00  0.00000000E+00
  0.00000000E+00  0.00000000E+00  0.00000000E+00
  0.00000000E+00  0.00000000E+00  0.00000000E+00
  0.00000000E+00  0.00000000E+00  0.00000000E+00
  0.00000000E+00  0.00000000E+00  0.00000000E+00
  0.00000000E+00  0.00000000E+00  0.00000000E+00
  0.00000000E+00  0.00000000E+00  0.00000000E+00
  0.00000000E+00  0.00000000E+00  0.00000000E+00
  0.00000000E+00  0.00000000E+00  0.00000000E+00
  0.00000000E+00  0.00000000E+00  0.00000000E+00
  0.00000000E+00  0.00000000E+00  0.00000000E+00
  0.00000000E+00  0.00000000E+00  0.00000000E+00
  0.00000000E+00  0.00000000E+00  0.00000000E+00
  0.00000000E+00  0.00000000E+00  0.00000000E+00
  0.00000000E+00  0.00000000E+00  0.00000000E+00
  0.00000000E+00  0.00000000E+00  0.00000000E+00
  0.00000000E+00  0.00000000E+00  0.00000000E+00
  0.00000000E+00  0.00000000E+00  0.00000000E+00
  0.00000000E+00  0.00000000E+00  0.00000000E+00
  0.00000000E+00  0.00000000E+00  0.00000000E+00
  0.00000000E+00  0.00000000E+00  0.00000000E+00
  0.00000000E+00  0.00000000E+00  0.00000000E+00
  0.00000000E+00  0.00000000E+00  0.00000000E+00
  0.00000000E+00  0.00000000E+00  0.00000000E+00
  0.00000000E+00  0.00000000E+00  0.00000000E+00
  0.00000000E+00  0.00000000E+00  0.00000000E+00
  0.00000000E+00  0.00000000E+00  0.00000000E+00
  0.00000000E+00  0.00000000E+00  0.00000000E+00
  0.00000000E+00  0.00000000E+00  0.00000000E+00
  0.00000000E+00  0.00000000E+00  0.00000000E+00
  0.00000000E+00  0.00000000E+00  0.00000000E+00
  0.00000000E+00  0.00000000E+00  0.00000000E+00
  0.00000000E+00  0.00000000E+00  0.00000000E+00
  0.00000000E+00  0.00000000E+00  0.00000000E+00
  0.00000000E+00  0.00000000E+00  0.00000000E+00
  0.00000000E+00  0.00000000E+00  0.00000000E+00
  0.00000000E+00  0.00000000E+00  0.00000000E+00
  0.00000000E+00  0.00000000E+00  0.00000000E+00
  0.00000000E+00  0.00000000E+00  0.00000000E+00
  0.00000000E+00  0.00000000E+00  0.00000000E+00
  0.00000000E+00  0.00000000E+00  0.00000000E+00
  0.00000000E+00  0.00000000E+00  0.00000000E+00
  0.00000000E+00  0.00000000E+00  0.00000000E+00
  0.00000000E+00  0.00000000E+00  0.00000000E+00
  0.00000000E+00  0.00000000E+00  0.00000000E+00
  0.00000000E+00  0.00000000E+00  0.00000000E+00
  0.00000000E+00  0.00000000E+00  0.00000000E+00
  0.00000000E+00  0.00000000E+00  0.00000000E+00
  0.00000000E+00  0.00000000E+00  0.00000000E+00
  0.00000000E+00  0.00000000E+00  0.00000000E+00
  0.00000000E+00  0.00000000E+00  0.00000000E+00
  0.00000000E+00  0.00000000E+00  0.00000000E+00
  0.00000000E+00  0.00000000E+00  0.00000000E+00
  0.00000000E+00  0.00000000E+00  0.00000000E+00
  0.00000000E+00  0.00000000E+00  0.00000000E+00
  0.00000000E+00  0.00000000E+00  0.00000000E+00
  0.00000000E+00  0.00000000E+00  0.00000000E+00
  0.00000000E+00  0.00000000E+00  0.00000000E+00
  0.00000000E+00  0.00000000E+00  0.00000000E+00
  0.00000000E+00  0.00000000E+00  0.00000000E+00
  0.00000000E+00  0.00000000E+00  0.00000000E+00
  0.00000000E+00  0.00000000E+00  0.00000000E+00
  0.00000000E+00  0.00000000E+00  0.00000000E+00
  0.00000000E+00  0.00000000E+00  0.00000000E+00
  0.00000000E+00  0.00000000E+00  0.00000000E+00
  0.00000000E+00  0.00000000E+00  0.00000000E+00
  0.00000000E+00  0.00000000E+00  0.00000000E+00
  0.00000000E+00  0.00000000E+00  0.00000000E+00
  0.00000000E+00  0.00000000E+00  0.00000000E+00
  0.00000000E+00  0.00000000E+00  0.00000000E+00
  0.00000000E+00  0.00000000E+00  0.00000000E+00
  0.00000000E+00  0.00000000E+00  0.00000000E+00
  0.00000000E+00  0.00000000E+00  0.00000000E+00
  0.00000000E+00  0.00000000E+00  0.00000000E+00
  0.00000000E+00  0.00000000E+00  0.00000000E+00
  0.00000000E+00  0.00000000E+00  0.00000000E+00
  0.00000000E+00  0.00000000E+00  0.00000000E+00
  0.00000000E+00  0.00000000E+00  0.00000000E+00
  0.00000000E+00  0.00000000E+00  0.00000000E+00
  0.00000000E+00  0.00000000E+00  0.00000000E+00
  0.00000000E+00  0.00000000E+00  0.00000000E+00
  0.00000000E+00  0.00000000E+00  0.00000000E+00
  0.00000000E+00  0.00000000E+00  0.00000000E+00
  0.00000000E+00  0.00000000E+00  0.00000000E+00
  0.00000000E+00  0.00000000E+00  0.00000000E+00
  0.00000000E+00  0.00000000E+00  0.00000000E+00
  0.00000000E+00  0.00000000E+00  0.00000000E+00
  0.00000000E+00  0.00000000E+00  0.00000000E+00
  0.00000000E+00  0.00000000E+00  0.00000000E+00
  0.00000000E+00  0.00000000E+00  0.00000000E+00
  0.00000000E+00  0.00000000E+00  0.00000000E+00
  0.00000000E+00  0.00000000E+00  0.00000000E+00
  0.00000000E+00  0.00000000E+00  0.00000000E+00
  0.00000000E+00  0.00000000E+00  0.00000000E+00
  0.00000000E+00  0.00000000E+00  0.00000000E+00
  0.00000000E+00  0.00000000E+00  0.00000000E+00
  0.00000000E+00  0.00000000E+00  0.00000000E+00
  0.00000000E+00  0.00000000E+00  0.00000000E+00
  0.00000000E+00  0.00000000E+00  0.00000000E+00
  0.00000000E+00  0.00000000E+00  0.00000000E+00
  0.00000000E+00  0.00000000E+00  0.00000000E+00
  0.00000000E+00  0.00000000E+00  0.00000000E+00
  0.00000000E+00  0.00000000E+00  0.00000000E+00
  0.00000000E+00  0.00000000E+00  0.00000000E+00
  0.00000000E+00  0.00000000E+00  0.00000000E+00
  0.00000000E+00  0.00000000E+00  0.00000000E+00
  0.00000000E+00  0.00000000E+00  0.00000000E+00
  0.00000000E+00  0.00000000E+00  0.00000000E+00
  0.00000000E+00  0.00000000E+00  0.00000000E+00
  0.00000000E+00  0.00000000E+00  0.00000000E+00
  0.00000000E+00  0.00000000E+00  0.00000000E+00
  0.00000000E+00  0.00000000E+00  0.00000000E+00
  0.00000000E+00  0.00000000E+00  0.00000000E+00
  0.00000000E+00  0.00000000E+00  0.00000000E+00
  0.00000000E+00  0.00000000E+00  0.00000000E+00
  0.00000000E+00  0.00000000E+00  0.00000000E+00
  0.00000000E+00  0.00000000E+00  0.00000000E+00
  0.00000000E+00  0.00000000E+00  0.00000000E+00
  0.00000000E+00  0.00000000E+00  0.00000000E+00
  0.00000000E+00  0.00000000E+00  0.00000000E+00
  0.00000000E+00  0.00000000E+00  0.00000000E+00
  0.00000000E+00  0.00000000E+00  0.00000000E+00
  0.00000000E+00  0.00000000E+00  0.00000000E+00
  0.00000000E+00  0.00000000E+00  0.00000000E+00
  0.00000000E+00  0.00000000E+00  0.00000000E+00
  0.00000000E+00  0.00000000E+00  0.00000000E+00
  0.00000000E+00  0.00000000E+00  0.00000000E+00
  0.00000000E+00  0.00000000E+00  0.00000000E+00
  0.00000000E+00  0.00000000E+00  0.00000000E+00
  0.00000000E+00  0.00000000E+00  0.00000000E+00
  0.00000000E+00  0.00000000E+00  0.00000000E+00
  0.00000000E+00  0.00000000E+00  0.00000000E+00
  0.00000000E+00  0.00000000E+00  0.00000000E+00
  0.00000000E+00  0.00000000E+00  0.00000000E+00
  0.00000000E+00  0.00000000E+00  0.00000000E+00
  0.00000000E+00  0.00000000E+00  0.00000000E+00
  0.00000000E+00  0.00000000E+00  0.00000000E+00
  0.00000000E+00  0.00000000E+00  0.00000000E+00
  0.00000000E+00  0.00000000E+00  0.00000000E+00
  0.00000000E+00  0.00000000E+00  0.00000000E+00
  0.00000000E+00  0.00000000E+00  0.00000000E+00
  0.00000000E+00  0.00000000E+00  0.00000000E+00
  0.00000000E+00  0.00000000E+00  0.00000000E+00
  0.00000000E+00  0.00000000E+00  0.00000000E+00
  0.00000000E+00  0.00000000E+00  0.00000000E+00
  0.00000000E+00  0.00000000E+00  0.00000000E+00
  0.00000000E+00  0.00000000E+00  0.00000000E+00
  0.00000000E+00  0.00000000E+00  0.00000000E+00
  0.00000000E+00  0.00000000E+00  0.00000000E+00
  0.00000000E+00  0.00000000E+00  0.00000000E+00
  0.00000000E+00  0.00000000E+00  0.00000000E+00
  0.00000000E+00  0.00000000E+00  0.00000000E+00
  0.00000000E+00  0.00000000E+00  0.00000000E+00
  0.00000000E+00  0.00000000E+00  0.00000000E+00
  0.00000000E+00  0.00000000E+00  0.00000000E+00
  0.00000000E+00  0.00000000E+00  0.00000000E+00
  0.00000000E+00  0.00000000E+00  0.00000000E+00
  0.00000000E+00  0.00000000E+00  0.00000000E+00
  0.00000000E+00  0.00000000E+00  0.00000000E+00
  0.00000000E+00  0.00000000E+00  0.00000000E+00
  0.00000000E+00  0.00000000E+00  0.00000000E+00
  0.00000000E+00  0.00000000E+00  0.00000000E+00
  0.00000000E+00  0.00000000E+00  0.00000000E+00
  0.00000000E+00  0.00000000E+00  0.00000000E+00
  0.00000000E+00  0.00000000E+00  0.00000000E+00
  0.00000000E+00  0.00000000E+00  0.00000000E+00
  0.00000000E+00  0.00000000E+00  0.00000000E+00
  0.00000000E+00  0.00000000E+00  0.00000000E+00
  0.00000000E+00  0.00000000E+00  0.00000000E+00
  0.00000000E+00  0.00000000E+00  0.00000000E+00
