Ti  O 
 1.0000000000000000
    12.8783825809832297    0.0000000000000000    0.0000000000000000
     0.0000000000000000   11.6868443333809928    0.0000000000000000
     0.0000000000000000    0.0000000000000000   30.4044782389966777
  Ti   O
  80 159
Selective dynamics
Direct
  0.5000000000000000  0.1250000000000000  0.2882156950737382   F   F   F
  0.7500000000000001  0.0000000000000000  0.2882156950737382   F   F   F
  0.7500000000000001  0.1250000000000000  0.3941078475368656   F   F   F
  0.5000000000000000  0.0000000000000000  0.3941078475368656   F   F   F
  0.5000000000000000  0.1250000000000000  0.4999999999999999   F   F   F
  0.7500000000000001  0.0000000000000000  0.4999999999999999   F   F   F
  0.7500005244578068  0.1249790747969560  0.6037832886968483   T   T   T
  0.5000004102201612  0.0000048163292501  0.6094980417815765   T   T   T
  0.5000192488477362  0.1250182138105617  0.7184349940951749   T   T   T
  0.2500001534219837  0.0000084859392361  0.7071919090569880   T   T   T
  0.5000000000000000  0.3750000000000001  0.2882156950737382   F   F   F
  0.7500000000000001  0.2500000000000000  0.2882156950737382   F   F   F
  0.7500000000000001  0.3750000000000001  0.3941078475368656   F   F   F
  0.5000000000000000  0.2500000000000000  0.3941078475368656   F   F   F
  0.5000000000000000  0.3750000000000001  0.4999999999999999   F   F   F
  0.7500000000000001  0.2500000000000000  0.4999999999999999   F   F   F
  0.7500000824575817  0.3750200536851430  0.6037831776690297   T   T   T
  0.5000001019431226  0.2500022702146404  0.6095078387675574   T   T   T
  0.4999806078766542  0.3749864772968425  0.7184366806935133   T   T   T
  0.2499996055045487  0.2499942760270027  0.7071278670625545   T   T   T
  0.5000000000000000  0.6250000000000000  0.2882156950737382   F   F   F
  0.7500000000000001  0.5000000000000000  0.2882156950737382   F   F   F
  0.7500000000000001  0.6250000000000000  0.3941078475368656   F   F   F
  0.5000000000000000  0.5000000000000000  0.3941078475368656   F   F   F
  0.5000000000000000  0.6250000000000000  0.4999999999999999   F   F   F
  0.7500000000000001  0.5000000000000000  0.4999999999999999   F   F   F
  0.7499994589709711  0.6249800647227307  0.6037836344568591   T   T   T
  0.5000000883341200  0.5000040458285744  0.6094981217842027   T   T   T
  0.5000024798067092  0.6250205501725103  0.7184355537045206   T   T   T
  0.2499970913557416  0.5000046478725859  0.7071918031818186   T   T   T
  0.5000000000000000  0.8750000000000001  0.2882156950737382   F   F   F
  0.7500000000000001  0.7500000000000001  0.2882156950737382   F   F   F
  0.7500000000000001  0.8750000000000001  0.3941078475368656   F   F   F
  0.5000000000000000  0.7500000000000001  0.3941078475368656   F   F   F
  0.5000000000000000  0.8750000000000001  0.4999999999999999   F   F   F
  0.7500000000000001  0.7500000000000001  0.4999999999999999   F   F   F
  0.7500018979067901  0.8750198139445352  0.6037832613050541   T   T   T
  0.5000004676961113  0.7500026788223372  0.6095069691469103   T   T   T
  0.4999830760011194  0.8749861082206036  0.7184355834392760   T   T   T
  0.2499975131232113  0.7499951131098249  0.7071275609245281   T   T   T
  0.0000000000000000  0.1250000000000000  0.2882156950737382   F   F   F
  0.2500000000000000  0.0000000000000000  0.2882156950737382   F   F   F
  0.2500000000000000  0.1250000000000000  0.3941078475368656   F   F   F
  0.0000000000000000  0.0000000000000000  0.3941078475368656   F   F   F
  0.0000000000000000  0.1250000000000000  0.4999999999999999   F   F   F
  0.2500000000000000  0.0000000000000000  0.4999999999999999   F   F   F
  0.2499996807482268  0.1249820528201584  0.6037833293873267   T   T   T
  0.9999997112819380  0.0000018819412899  0.6094976989851953   T   T   T
  0.9999805003927299  0.1250187031802385  0.7184359062827345   T   T   T
  0.7499995616257443  0.9999922192902189  0.7071919843532443   T   T   T
  0.0000000000000000  0.3750000000000001  0.2882156950737382   F   F   F
  0.2500000000000000  0.2500000000000000  0.2882156950737382   F   F   F
  0.2500000000000000  0.3750000000000001  0.3941078475368656   F   F   F
  0.0000000000000000  0.2500000000000000  0.3941078475368656   F   F   F
  0.0000000000000000  0.3750000000000001  0.4999999999999999   F   F   F
  0.2500000000000000  0.2500000000000000  0.4999999999999999   F   F   F
  0.2499998559098605  0.3750173127408840  0.6037832278226263   T   T   T
  0.9999999176753137  0.2500017624113431  0.6095080955140426   T   T   T
  0.0000155727869192  0.3749808112754586  0.7184355806907723   T   T   T
  0.7499989850124147  0.2500061111911669  0.7071273085574871   T   T   T
  0.0000000000000000  0.6250000000000000  0.2882156950737382   F   F   F
  0.2500000000000000  0.5000000000000000  0.2882156950737382   F   F   F
  0.2500000000000000  0.6250000000000000  0.3941078475368656   F   F   F
  0.0000000000000000  0.5000000000000000  0.3941078475368656   F   F   F
  0.0000000000000000  0.6250000000000000  0.4999999999999999   F   F   F
  0.2500000000000000  0.5000000000000000  0.4999999999999999   F   F   F
  0.2500007762458951  0.6249813792247298  0.6037829890240776   T   T   T
  0.9999999241065238  0.5000025613608127  0.6094977786403774   T   T   T
  0.9999799513859164  0.6250179292787406  0.7184363387765164   T   T   T
  0.7499954593274193  0.4999926916039995  0.7071918639903281   T   T   T
  0.0000000000000000  0.8750000000000001  0.2882156950737382   F   F   F
  0.2500000000000000  0.7500000000000001  0.2882156950737382   F   F   F
  0.2500000000000000  0.8750000000000001  0.3941078475368656   F   F   F
  0.0000000000000000  0.7500000000000001  0.3941078475368656   F   F   F
  0.0000000000000000  0.8750000000000001  0.4999999999999999   F   F   F
  0.2500000000000000  0.7500000000000001  0.4999999999999999   F   F   F
  0.2499981844135216  0.8750170651255748  0.6037833060710098   T   T   T
  0.9999999237542483  0.7500000846332735  0.6095089254983254   T   T   T
  0.0000155426621968  0.8749816647209597  0.7184355887078937   T   T   T
  0.7499975410826180  0.7500020660375156  0.7071278768590067   T   T   T
  0.3480750355150803  0.1250000000000000  0.2882156950737382   F   F   F
  0.6519249644849197  0.1250000000000000  0.2882156950737382   F   F   F
  0.5000000000000000  0.0000000000000000  0.2466741886193731   F   F   F
  0.5000000000000000  0.0000000000000000  0.3297572015280963   F   F   F
  0.5980750355150803  0.1250000000000000  0.3941078475368656   F   F   F
  0.4019249644849198  0.1250000000000000  0.3941078475368656   F   F   F
  0.7500000000000001  0.0000000000000000  0.3525663410825075   F   F   F
  0.7500000000000001  0.0000000000000000  0.4356493539912307   F   F   F
  0.3480750355150803  0.1250000000000000  0.4999999999999999   F   F   F
  0.6519249644849197  0.1250000000000000  0.4999999999999999   F   F   F
  0.5000000000000000  0.0000000000000000  0.4584584935456418   F   F   F
  0.5000000000000000  0.0000000000000000  0.5415415064543579   F   F   F
  0.6001169050606439  0.1250193554667367  0.6063085798819449   T   T   T
  0.3998835603364128  0.1250199969876072  0.6063083595620566   T   T   T
  0.7500004991108774  0.9999987929693874  0.5647975530142830   T   T   T
  0.2500010504466887  0.9999987107890994  0.6480279114324822   T   T   T
  0.3440255129660760  0.1250095127345678  0.7174468647445018   T   T   T
  0.6559765490907182  0.1250098648193110  0.7174483654473928   T   T   T
  0.5000003467440255  0.9999992340107277  0.6703737127649446   T   T   T
  0.5000009185736020  0.9999989327311201  0.7535708603108985   T   T   T
  0.3480750355150803  0.3750000000000001  0.2882156950737382   F   F   F
  0.6519249644849197  0.3750000000000001  0.2882156950737382   F   F   F
  0.5000000000000000  0.2500000000000000  0.2466741886193731   F   F   F
  0.5000000000000000  0.2500000000000000  0.3297572015280963   F   F   F
  0.5980750355150803  0.3750000000000001  0.3941078475368656   F   F   F
  0.4019249644849198  0.3750000000000001  0.3941078475368656   F   F   F
  0.7500000000000001  0.2500000000000000  0.3525663410825075   F   F   F
  0.7500000000000001  0.2500000000000000  0.4356493539912307   F   F   F
  0.3480750355150803  0.3750000000000001  0.4999999999999999   F   F   F
  0.6519249644849197  0.3750000000000001  0.4999999999999999   F   F   F
  0.5000000000000000  0.2500000000000000  0.4584584935456418   F   F   F
  0.5000000000000000  0.2500000000000000  0.5415415064543579   F   F   F
  0.6001171204484350  0.3749798381739464  0.6063083102146040   T   T   T
  0.3998834300008425  0.3749797979335305  0.6063085553397088   T   T   T
  0.7500005015514977  0.2499998782334307  0.5648005631650229   T   T   T
  0.2499999204079132  0.2500001057993993  0.6479913789138831   T   T   T
  0.3440210499078412  0.3749871770639197  0.7174488997315438   T   T   T
  0.6559717638309552  0.3749866875132521  0.7174448826222789   T   T   T
  0.4999998578162576  0.2499987152702941  0.6703860128061795   T   T   T
  0.5000007224450439  0.2499983287040636  0.7535785756334824   T   T   T
  0.3480750355150803  0.6250000000000000  0.2882156950737382   F   F   F
  0.6519249644849197  0.6250000000000000  0.2882156950737382   F   F   F
  0.5000000000000000  0.5000000000000000  0.2466741886193731   F   F   F
  0.5000000000000000  0.5000000000000000  0.3297572015280963   F   F   F
  0.5980750355150803  0.6250000000000000  0.3941078475368656   F   F   F
  0.4019249644849198  0.6250000000000000  0.3941078475368656   F   F   F
  0.7500000000000001  0.5000000000000000  0.3525663410825075   F   F   F
  0.7500000000000001  0.5000000000000000  0.4356493539912307   F   F   F
  0.3480750355150803  0.6250000000000000  0.4999999999999999   F   F   F
  0.6519249644849197  0.6250000000000000  0.4999999999999999   F   F   F
  0.5000000000000000  0.5000000000000000  0.4584584935456418   F   F   F
  0.5000000000000000  0.5000000000000000  0.5415415064543579   F   F   F
  0.6001159684858162  0.6250203464825927  0.6063082324569705   T   T   T
  0.3998838737433804  0.6250206799950484  0.6063082853618835   T   T   T
  0.7500007299723217  0.4999988462480904  0.5647973766822341   T   T   T
  0.2500002466545372  0.4999989824370594  0.6480277961760690   T   T   T
  0.3440241457874291  0.6250104467627268  0.7174469765887477   T   T   T
  0.6559747538816335  0.6250093988504866  0.7174475205987748   T   T   T
  0.4999978820362274  0.4999997787643338  0.6703729992675985   T   T   T
  0.3480750355150803  0.8750000000000001  0.2882156950737382   F   F   F
  0.6519249644849197  0.8750000000000001  0.2882156950737382   F   F   F
  0.5000000000000000  0.7500000000000001  0.2466741886193731   F   F   F
  0.5000000000000000  0.7500000000000001  0.3297572015280963   F   F   F
  0.5980750355150803  0.8750000000000001  0.3941078475368656   F   F   F
  0.4019249644849198  0.8750000000000001  0.3941078475368656   F   F   F
  0.7500000000000001  0.7500000000000001  0.3525663410825075   F   F   F
  0.7500000000000001  0.7500000000000001  0.4356493539912307   F   F   F
  0.3480750355150803  0.8750000000000001  0.4999999999999999   F   F   F
  0.6519249644849197  0.8750000000000001  0.4999999999999999   F   F   F
  0.5000000000000000  0.7500000000000001  0.4584584935456418   F   F   F
  0.5000000000000000  0.7500000000000001  0.5415415064543579   F   F   F
  0.6001165472523441  0.8749797231907311  0.6063086153695455   T   T   T
  0.3998837605482944  0.8749798396970504  0.6063086193324356   T   T   T
  0.7500004103984245  0.7499993918312833  0.5648006727557240   T   T   T
  0.2499999053232534  0.7500002968376110  0.6479915011692933   T   T   T
  0.3440220781574238  0.8749864170810003  0.7174479909218821   T   T   T
  0.6559713312668025  0.8749872235771824  0.7174454279248251   T   T   T
  0.4999989399473271  0.7499995708458586  0.6703870848396613   T   T   T
  0.5000000337532555  0.7500007534935359  0.7535801059426189   T   T   T
  0.8480750355150803  0.1250000000000000  0.2882156950737382   F   F   F
  0.1519249644849197  0.1250000000000000  0.2882156950737382   F   F   F
  0.0000000000000000  0.0000000000000000  0.2466741886193731   F   F   F
  0.0000000000000000  0.0000000000000000  0.3297572015280963   F   F   F
  0.0980750355150803  0.1250000000000000  0.3941078475368656   F   F   F
  0.9019249644849197  0.1250000000000000  0.3941078475368656   F   F   F
  0.2500000000000000  0.0000000000000000  0.3525663410825075   F   F   F
  0.2500000000000000  0.0000000000000000  0.4356493539912307   F   F   F
  0.8480750355150803  0.1250000000000000  0.4999999999999999   F   F   F
  0.1519249644849197  0.1250000000000000  0.4999999999999999   F   F   F
  0.0000000000000000  0.0000000000000000  0.4584584935456418   F   F   F
  0.0000000000000000  0.0000000000000000  0.5415415064543579   F   F   F
  0.1001172326116911  0.1250201449529467  0.6063086825367958   T   T   T
  0.8998839762219281  0.1250199588422095  0.6063087216066946   T   T   T
  0.2500000634799306  0.9999990143983389  0.5647973080174414   T   T   T
  0.7500008542827514  0.9999994597964146  0.6480274968788122   T   T   T
  0.8440233914988458  0.1250096118818131  0.7174479140130952   T   T   T
  0.1559714490497918  0.1250088472219341  0.7174457868980371   T   T   T
  0.9999996755400304  0.9999985390892026  0.6703738771344510   T   T   T
  0.9999998854048712  0.9999995466559988  0.7535709422932546   T   T   T
  0.8480750355150803  0.3750000000000001  0.2882156950737382   F   F   F
  0.1519249644849197  0.3750000000000001  0.2882156950737382   F   F   F
  0.0000000000000000  0.2500000000000000  0.2466741886193731   F   F   F
  0.0000000000000000  0.2500000000000000  0.3297572015280963   F   F   F
  0.0980750355150803  0.3750000000000001  0.3941078475368656   F   F   F
  0.9019249644849197  0.3750000000000001  0.3941078475368656   F   F   F
  0.2500000000000000  0.2500000000000000  0.3525663410825075   F   F   F
  0.2500000000000000  0.2500000000000000  0.4356493539912307   F   F   F
  0.8480750355150803  0.3750000000000001  0.4999999999999999   F   F   F
  0.1519249644849197  0.3750000000000001  0.4999999999999999   F   F   F
  0.0000000000000000  0.2500000000000000  0.4584584935456418   F   F   F
  0.0000000000000000  0.2500000000000000  0.5415415064543579   F   F   F
  0.1001171226891588  0.3749806782069804  0.6063087286802978   T   T   T
  0.8998832232121371  0.3749804375076713  0.6063085219905645   T   T   T
  0.2500000967305648  0.2500000696333812  0.5648007289257631   T   T   T
  0.7500005396951006  0.2499992340942987  0.6479908809631594   T   T   T
  0.8440259265009684  0.3749869501796695  0.7174463310339070   T   T   T
  0.1559774937791638  0.3749867845292397  0.7174492235412708   T   T   T
  0.0000001971865333  0.2499991126289804  0.6703861332212467   T   T   T
  0.0000005087505926  0.2499989195272651  0.7535784414805847   T   T   T
  0.8480750355150803  0.6250000000000000  0.2882156950737382   F   F   F
  0.1519249644849197  0.6250000000000000  0.2882156950737382   F   F   F
  0.0000000000000000  0.5000000000000000  0.2466741886193731   F   F   F
  0.0000000000000000  0.5000000000000000  0.3297572015280963   F   F   F
  0.0980750355150803  0.6250000000000000  0.3941078475368656   F   F   F
  0.9019249644849197  0.6250000000000000  0.3941078475368656   F   F   F
  0.2500000000000000  0.5000000000000000  0.3525663410825075   F   F   F
  0.2500000000000000  0.5000000000000000  0.4356493539912307   F   F   F
  0.8480750355150803  0.6250000000000000  0.4999999999999999   F   F   F
  0.1519249644849197  0.6250000000000000  0.4999999999999999   F   F   F
  0.0000000000000000  0.5000000000000000  0.4584584935456418   F   F   F
  0.0000000000000000  0.5000000000000000  0.5415415064543579   F   F   F
  0.1001167205958871  0.6250191838099555  0.6063087165639779   T   T   T
  0.8998841497445648  0.6250190240691633  0.6063087586972833   T   T   T
  0.2499999539069769  0.4999989071759183  0.5647974944704713   T   T   T
  0.7499993717826566  0.4999989112605119  0.6480271420986238   T   T   T
  0.8440230659504070  0.6250088003598715  0.7174480641251140   T   T   T
  0.1559725221840283  0.6250097126398956  0.7174460636957619   T   T   T
  0.0000002567614924  0.4999988526222381  0.6703735573566338   T   T   T
  0.0000003207904487  0.4999999821842634  0.7535708342167822   T   T   T
  0.8480750355150803  0.8750000000000001  0.2882156950737382   F   F   F
  0.1519249644849197  0.8750000000000001  0.2882156950737382   F   F   F
  0.0000000000000000  0.7500000000000001  0.2466741886193731   F   F   F
  0.0000000000000000  0.7500000000000001  0.3297572015280963   F   F   F
  0.0980750355150803  0.8750000000000001  0.3941078475368656   F   F   F
  0.9019249644849197  0.8750000000000001  0.3941078475368656   F   F   F
  0.2500000000000000  0.7500000000000001  0.3525663410825075   F   F   F
  0.2500000000000000  0.7500000000000001  0.4356493539912307   F   F   F
  0.8480750355150803  0.8750000000000001  0.4999999999999999   F   F   F
  0.1519249644849197  0.8750000000000001  0.4999999999999999   F   F   F
  0.0000000000000000  0.7500000000000001  0.4584584935456418   F   F   F
  0.0000000000000000  0.7500000000000001  0.5415415064543579   F   F   F
  0.1001177471395788  0.8749796702734407  0.6063088950366641   T   T   T
  0.8998836890092187  0.8749791958540847  0.6063084991756054   T   T   T
  0.2500001909804918  0.7499994895402304  0.5648009300965502   T   T   T
  0.7500005963249139  0.7499982668652673  0.6479909511965324   T   T   T
  0.8440259151114314  0.8749870719098717  0.7174468609430406   T   T   T
  0.1559781838299652  0.8749864324110228  0.7174491905361574   T   T   T
  0.0000003522949290  0.7499986983521995  0.6703866420095522   T   T   T
  0.0000009123142958  0.7499985780703148  0.7535783400594933   T   T   T
