Ti  O                                   
   1.00000000000000     
    12.9930437378145687    0.0000000000000000    0.0000000000000000
     0.0000000000000000   11.7667138001023517    0.0000000000000000
     0.0000000000000000    0.0000000000000000   30.5357092178438165
   Ti   O 
    80   159
Selective dynamics
Direct
  0.5000000000000000  0.1250000000000000  0.2872483713228746   F   F   F
  0.2500000000000000  0.0000000000000000  0.2872483713228746   F   F   F
  0.2500000000000000  0.1250000000000000  0.3936241856614373   F   F   F
  0.5000000000000000  0.0000000000000000  0.3936241856614373   F   F   F
  0.5000000000000000  0.1250000000000000  0.5000000000000000   F   F   F
  0.2500000000000000  0.0000000000000000  0.5000000000000000   F   F   F
  0.2486643262682549  0.1248633855910413  0.6044421285734956   T   T   T
  0.5001102227346692  0.0000836769318795  0.6133144921529308   T   T   T
  0.4999993518253589  0.1216281532606303  0.7235652653112155   T   T   T
  0.7496388805338938  0.0000058432490917  0.7082227291111209   T   T   T
  0.5000000000000000  0.3750000000000000  0.2872483713228746   F   F   F
  0.2500000000000000  0.2500000000000000  0.2872483713228746   F   F   F
  0.2500000000000000  0.3750000000000000  0.3936241856614373   F   F   F
  0.5000000000000000  0.2500000000000000  0.3936241856614373   F   F   F
  0.5000000000000000  0.3750000000000000  0.5000000000000000   F   F   F
  0.2500000000000000  0.2500000000000000  0.5000000000000000   F   F   F
  0.2485192054847900  0.3749408928408400  0.6045455353153102   T   T   T
  0.4999743491088680  0.2477021733857327  0.6040523247504410   T   T   T
  0.4999937193431236  0.3560440309088690  0.7079536156684156   T   T   T
  0.7495820121032253  0.2498308567308385  0.7085417964544192   T   T   T
  0.5000000000000000  0.6250000000000000  0.2872483713228746   F   F   F
  0.2500000000000000  0.5000000000000000  0.2872483713228746   F   F   F
  0.2500000000000000  0.6250000000000000  0.3936241856614373   F   F   F
  0.5000000000000000  0.5000000000000000  0.3936241856614373   F   F   F
  0.5000000000000000  0.6250000000000000  0.5000000000000000   F   F   F
  0.2500000000000000  0.5000000000000000  0.5000000000000000   F   F   F
  0.2484811984127617  0.6249407055308893  0.6045457387265216   T   T   T
  0.5000596416377689  0.5000125509406175  0.6075139718439502   T   T   T
  0.4999948893884323  0.6439497136798380  0.7079586636526116   T   T   T
  0.7479119314932063  0.5000023926595532  0.7081838735553418   T   T   T
  0.5000000000000000  0.8750000000000000  0.2872483713228746   F   F   F
  0.2500000000000000  0.7500000000000000  0.2872483713228746   F   F   F
  0.2500000000000000  0.8750000000000000  0.3936241856614373   F   F   F
  0.5000000000000000  0.7500000000000000  0.3936241856614373   F   F   F
  0.5000000000000000  0.8750000000000000  0.5000000000000000   F   F   F
  0.2500000000000000  0.7500000000000000  0.5000000000000000   F   F   F
  0.2486284594301225  0.8750905260424275  0.6044288430504068   T   T   T
  0.4997764895078660  0.7523561009452493  0.6040765869726528   T   T   T
  0.4999999639028587  0.8783764510811878  0.7235658588027931   T   T   T
  0.7495889808969949  0.7501813047980690  0.7085466233021265   T   T   T
  0.0000000000000000  0.1250000000000000  0.2872483713228746   F   F   F
  0.7500000000000000  0.0000000000000000  0.2872483713228746   F   F   F
  0.7500000000000000  0.1250000000000000  0.3936241856614373   F   F   F
  0.0000000000000000  0.0000000000000000  0.3936241856614373   F   F   F
  0.0000000000000000  0.1250000000000000  0.5000000000000000   F   F   F
  0.7500000000000000  0.0000000000000000  0.5000000000000000   F   F   F
  0.7514190180903100  0.1249176372841916  0.6044237255709390   T   T   T
  0.0000075825539056  0.9999826719999305  0.6096505167788919   T   T   T
  0.0000012633259914  0.1250097764628535  0.7190612562771648   T   T   T
  0.2503788854255333  0.9999971773242109  0.7082244944102953   T   T   T
  0.0000000000000000  0.3750000000000000  0.2872483713228746   F   F   F
  0.7500000000000000  0.2500000000000000  0.2872483713228746   F   F   F
  0.7500000000000000  0.3750000000000000  0.3936241856614373   F   F   F
  0.0000000000000000  0.2500000000000000  0.3936241856614373   F   F   F
  0.0000000000000000  0.3750000000000000  0.5000000000000000   F   F   F
  0.7500000000000000  0.2500000000000000  0.5000000000000000   F   F   F
  0.7514982410075675  0.3750259144268568  0.6045545417555545   T   T   T
  0.0000252342507352  0.2499496011814841  0.6097350861455695   T   T   T
  0.9999772298330782  0.3750127743919549  0.7192122351566610   T   T   T
  0.2504012407995049  0.2498348317421986  0.7085459355639543   T   T   T
  0.0000000000000000  0.6250000000000000  0.2872483713228746   F   F   F
  0.7500000000000000  0.5000000000000000  0.2872483713228746   F   F   F
  0.7500000000000000  0.6250000000000000  0.3936241856614373   F   F   F
  0.0000000000000000  0.5000000000000000  0.3936241856614373   F   F   F
  0.0000000000000000  0.6250000000000000  0.5000000000000000   F   F   F
  0.7500000000000000  0.5000000000000000  0.5000000000000000   F   F   F
  0.7514088948442819  0.6250379919861189  0.6045437257637403   T   T   T
  0.9999834933419223  0.5000088029654606  0.6096846619035503   T   T   T
  0.9999833882815281  0.6249912601349266  0.7192106121872186   T   T   T
  0.2520609165812786  0.4999990112577279  0.7081713529828804   T   T   T
  0.0000000000000000  0.8750000000000000  0.2872483713228746   F   F   F
  0.7500000000000000  0.7500000000000000  0.2872483713228746   F   F   F
  0.7500000000000000  0.8750000000000000  0.3936241856614373   F   F   F
  0.0000000000000000  0.7500000000000000  0.3936241856614373   F   F   F
  0.0000000000000000  0.8750000000000000  0.5000000000000000   F   F   F
  0.7500000000000000  0.7500000000000000  0.5000000000000000   F   F   F
  0.7512929246005129  0.8751094302896334  0.6044448206834971   T   T   T
  0.9999586631170416  0.7500526705216402  0.6097331926759537   T   T   T
  0.0000073744139328  0.8749880503250722  0.7190589427336818   T   T   T
  0.2504039670621836  0.7501638107307471  0.7085398268451186   T   T   T
  0.3478471838984589  0.1250000000000000  0.2872483713228746   F   F   F
  0.6521528161015411  0.1250000000000000  0.2872483713228746   F   F   F
  0.5000000000000000  0.0000000000000000  0.2456140758511438   F   F   F
  0.5000000000000000  0.0000000000000000  0.3288826667946125   F   F   F
  0.5978471838984589  0.1250000000000000  0.3936241856614373   F   F   F
  0.4021528161015411  0.1250000000000000  0.3936241856614373   F   F   F
  0.2500000000000000  0.0000000000000000  0.3519898901897065   F   F   F
  0.2500000000000000  0.0000000000000000  0.4352584811331752   F   F   F
  0.3478471838984589  0.1250000000000000  0.5000000000000000   F   F   F
  0.6521528161015411  0.1250000000000000  0.5000000000000000   F   F   F
  0.5000000000000000  0.0000000000000000  0.4583657045282692   F   F   F
  0.5000000000000000  0.0000000000000000  0.5416342954717308   F   F   F
  0.5988957328585656  0.1249721220357927  0.6074836472006950   T   T   T
  0.4011278482317095  0.1249610062153295  0.6074848140810047   T   T   T
  0.2509103768396415  0.9999960989956378  0.5653248024770292   T   T   T
  0.2515438727326043  0.9999884142732185  0.6494122283949579   T   T   T
  0.3446801939113158  0.1244856593969885  0.7203564291708346   T   T   T
  0.6553209579554462  0.1244833309866280  0.7203535835851511   T   T   T
  0.5000120258082958  0.0000060204693924  0.6750730813929593   T   T   T
  0.5000010550481662  0.9999968914891895  0.7600213107847154   T   T   T
  0.3478471838984589  0.3750000000000000  0.2872483713228746   F   F   F
  0.6521528161015411  0.3750000000000000  0.2872483713228746   F   F   F
  0.5000000000000000  0.2500000000000000  0.2456140758511438   F   F   F
  0.5000000000000000  0.2500000000000000  0.3288826667946125   F   F   F
  0.5978471838984589  0.3750000000000000  0.3936241856614373   F   F   F
  0.4021528161015411  0.3750000000000000  0.3936241856614373   F   F   F
  0.2500000000000000  0.2500000000000000  0.3519898901897065   F   F   F
  0.2500000000000000  0.2500000000000000  0.4352584811331752   F   F   F
  0.3478471838984589  0.3750000000000000  0.5000000000000000   F   F   F
  0.6521528161015411  0.3750000000000000  0.5000000000000000   F   F   F
  0.5000000000000000  0.2500000000000000  0.4583657045282692   F   F   F
  0.5000000000000000  0.2500000000000000  0.5416342954717308   F   F   F
  0.5983607774328519  0.3750838741822307  0.6082550422617174   T   T   T
  0.4016350783123173  0.3750604992372857  0.6082506689900740   T   T   T
  0.2517137713634199  0.2501549788763739  0.5653556147059433   T   T   T
  0.2512283171721137  0.2500330241374371  0.6496744839258284   T   T   T
  0.3487328742825468  0.3765571825997114  0.7188960606715824   T   T   T
  0.6512603685895400  0.3765605614795575  0.7188947683279210   T   T   T
  0.5000056691319372  0.2406071570719845  0.6711773789764806   T   T   T
  0.5000024973774728  0.2557722221786634  0.7537355153947729   T   T   T
  0.3478471838984589  0.6250000000000000  0.2872483713228746   F   F   F
  0.6521528161015411  0.6250000000000000  0.2872483713228746   F   F   F
  0.5000000000000000  0.5000000000000000  0.2456140758511438   F   F   F
  0.5000000000000000  0.5000000000000000  0.3288826667946125   F   F   F
  0.5978471838984589  0.6250000000000000  0.3936241856614373   F   F   F
  0.4021528161015411  0.6250000000000000  0.3936241856614373   F   F   F
  0.2500000000000000  0.5000000000000000  0.3519898901897065   F   F   F
  0.2500000000000000  0.5000000000000000  0.4352584811331752   F   F   F
  0.3478471838984589  0.6250000000000000  0.5000000000000000   F   F   F
  0.6521528161015411  0.6250000000000000  0.5000000000000000   F   F   F
  0.5000000000000000  0.5000000000000000  0.4583657045282692   F   F   F
  0.5000000000000000  0.5000000000000000  0.5416342954717308   F   F   F
  0.5983385495503981  0.6249335752069101  0.6082536223126525   T   T   T
  0.4016149250366539  0.6249216624409613  0.6082555763242539   T   T   T
  0.2519807635143323  0.4999727981580548  0.5653464542934614   T   T   T
  0.2504741955656300  0.4999795224111168  0.6494287903132090   T   T   T
  0.3487372472987005  0.6234356671641876  0.7188949486771037   T   T   T
  0.6512612861785172  0.6234401540421075  0.7188975835039102   T   T   T
  0.4999980916406273  0.4999994092725117  0.6763468179020720   T   T   T
  0.3478471838984589  0.8750000000000000  0.2872483713228746   F   F   F
  0.6521528161015411  0.8750000000000000  0.2872483713228746   F   F   F
  0.5000000000000000  0.7500000000000000  0.2456140758511438   F   F   F
  0.5000000000000000  0.7500000000000000  0.3288826667946125   F   F   F
  0.5978471838984589  0.8750000000000000  0.3936241856614373   F   F   F
  0.4021528161015411  0.8750000000000000  0.3936241856614373   F   F   F
  0.2500000000000000  0.7500000000000000  0.3519898901897065   F   F   F
  0.2500000000000000  0.7500000000000000  0.4352584811331752   F   F   F
  0.3478471838984589  0.8750000000000000  0.5000000000000000   F   F   F
  0.6521528161015411  0.8750000000000000  0.5000000000000000   F   F   F
  0.5000000000000000  0.7500000000000000  0.4583657045282692   F   F   F
  0.5000000000000000  0.7500000000000000  0.5416342954717308   F   F   F
  0.5988640760974562  0.8750268956207776  0.6074910042167616   T   T   T
  0.4010993574777402  0.8750911443298293  0.6074846652657229   T   T   T
  0.2517259721787468  0.7497899382144197  0.5653589653273556   T   T   T
  0.2512303909422258  0.7499573534661153  0.6496719540794658   T   T   T
  0.3446829243116412  0.8755135329833692  0.7203538491054005   T   T   T
  0.6553193491482148  0.8755145702235794  0.7203490960118017   T   T   T
  0.4999711843241741  0.7593810790738758  0.6711799226407464   T   T   T
  0.5000053358788321  0.7442294736360537  0.7537367931581116   T   T   T
  0.8478471838984589  0.1250000000000000  0.2872483713228746   F   F   F
  0.1521528161015411  0.1250000000000000  0.2872483713228746   F   F   F
  0.0000000000000000  0.0000000000000000  0.2456140758511438   F   F   F
  0.0000000000000000  0.0000000000000000  0.3288826667946125   F   F   F
  0.0978471838984589  0.1250000000000000  0.3936241856614373   F   F   F
  0.9021528161015411  0.1250000000000000  0.3936241856614373   F   F   F
  0.7500000000000000  0.0000000000000000  0.3519898901897065   F   F   F
  0.7500000000000000  0.0000000000000000  0.4352584811331752   F   F   F
  0.8478471838984589  0.1250000000000000  0.5000000000000000   F   F   F
  0.1521528161015411  0.1250000000000000  0.5000000000000000   F   F   F
  0.0000000000000000  0.0000000000000000  0.4583657045282692   F   F   F
  0.0000000000000000  0.0000000000000000  0.5416342954717308   F   F   F
  0.1004766571275724  0.1251251096912540  0.6070407720530966   T   T   T
  0.8995328052419751  0.1251253875892147  0.6070324442113133   T   T   T
  0.7490719311751945  0.0000052754566155  0.5653282519371601   T   T   T
  0.7484527832099985  0.0000272660855245  0.6494114942919254   T   T   T
  0.8431401204720927  0.1256945998088739  0.7186375359217365   T   T   T
  0.1568558816164440  0.1256834159930023  0.7186407863425472   T   T   T
  0.9999970855137548  0.0000055527798963  0.6710918251239661   T   T   T
  0.9999950727788445  0.9999951835728709  0.7542870378831381   T   T   T
  0.8478471838984589  0.3750000000000000  0.2872483713228746   F   F   F
  0.1521528161015411  0.3750000000000000  0.2872483713228746   F   F   F
  0.0000000000000000  0.2500000000000000  0.2456140758511438   F   F   F
  0.0000000000000000  0.2500000000000000  0.3288826667946125   F   F   F
  0.0978471838984589  0.3750000000000000  0.3936241856614373   F   F   F
  0.9021528161015411  0.3750000000000000  0.3936241856614373   F   F   F
  0.7500000000000000  0.2500000000000000  0.3519898901897065   F   F   F
  0.7500000000000000  0.2500000000000000  0.4352584811331752   F   F   F
  0.8478471838984589  0.3750000000000000  0.5000000000000000   F   F   F
  0.1521528161015411  0.3750000000000000  0.5000000000000000   F   F   F
  0.0000000000000000  0.2500000000000000  0.4583657045282692   F   F   F
  0.0000000000000000  0.2500000000000000  0.5416342954717308   F   F   F
  0.1005144772648308  0.3750613871967161  0.6069220883247439   T   T   T
  0.8994823936228471  0.3750638561822512  0.6069217256668153   T   T   T
  0.7482755248436632  0.2502195479647540  0.5653555689581324   T   T   T
  0.7487692503449423  0.2500409695707404  0.6496720478371643   T   T   T
  0.8412737568026216  0.3751177202740621  0.7195391331567933   T   T   T
  0.1587098053508740  0.3751214869714161  0.7195357062695251   T   T   T
  0.9999898384584895  0.2506961565429080  0.6711361793077515   T   T   T
  0.0000022236930803  0.2501812510097920  0.7543495331390488   T   T   T
  0.8478471838984589  0.6250000000000000  0.2872483713228746   F   F   F
  0.1521528161015411  0.6250000000000000  0.2872483713228746   F   F   F
  0.0000000000000000  0.5000000000000000  0.2456140758511438   F   F   F
  0.0000000000000000  0.5000000000000000  0.3288826667946125   F   F   F
  0.0978471838984589  0.6250000000000000  0.3936241856614373   F   F   F
  0.9021528161015411  0.6250000000000000  0.3936241856614373   F   F   F
  0.7500000000000000  0.5000000000000000  0.3519898901897065   F   F   F
  0.7500000000000000  0.5000000000000000  0.4352584811331752   F   F   F
  0.8478471838984589  0.6250000000000000  0.5000000000000000   F   F   F
  0.1521528161015411  0.6250000000000000  0.5000000000000000   F   F   F
  0.0000000000000000  0.5000000000000000  0.4583657045282692   F   F   F
  0.0000000000000000  0.5000000000000000  0.5416342954717308   F   F   F
  0.1005070692867704  0.6249371807479136  0.6069234086336053   T   T   T
  0.8994751701989046  0.6249275900591869  0.6069226293063750   T   T   T
  0.7480072458908040  0.5000094519361227  0.5653470861609549   T   T   T
  0.7495177810085067  0.5000094079794977  0.6494343648744305   T   T   T
  0.8412746022535131  0.6248818823145257  0.7195398207143242   T   T   T
  0.1587130812858391  0.6248797098739374  0.7195306039235376   T   T   T
  0.9999955383128096  0.4999957455191719  0.6711949547088807   T   T   T
  0.9999958019908277  0.5000027766804251  0.7544081874460815   T   T   T
  0.8478471838984589  0.8750000000000000  0.2872483713228746   F   F   F
  0.1521528161015411  0.8750000000000000  0.2872483713228746   F   F   F
  0.0000000000000000  0.7500000000000000  0.2456140758511438   F   F   F
  0.0000000000000000  0.7500000000000000  0.3288826667946125   F   F   F
  0.0978471838984589  0.8750000000000000  0.3936241856614373   F   F   F
  0.9021528161015411  0.8750000000000000  0.3936241856614373   F   F   F
  0.7500000000000000  0.7500000000000000  0.3519898901897065   F   F   F
  0.7500000000000000  0.7500000000000000  0.4352584811331752   F   F   F
  0.8478471838984589  0.8750000000000000  0.5000000000000000   F   F   F
  0.1521528161015411  0.8750000000000000  0.5000000000000000   F   F   F
  0.0000000000000000  0.7500000000000000  0.4583657045282692   F   F   F
  0.0000000000000000  0.7500000000000000  0.5416342954717308   F   F   F
  0.1004675295571857  0.8748711953239336  0.6070348944919957   T   T   T
  0.8995182748611867  0.8748944015533837  0.6070401096704714   T   T   T
  0.7482863548630903  0.7498327269313734  0.5653600442133921   T   T   T
  0.7487656421146411  0.7499630099722339  0.6496757335251004   T   T   T
  0.8431412058329784  0.8743094689044142  0.7186361144910265   T   T   T
  0.1568594873399149  0.8743116482282289  0.7186370937462740   T   T   T
  0.9999929649199260  0.7493034326965429  0.6711370815015059   T   T   T
  0.0000004963637537  0.7498219878883177  0.7543482779164776   T   T   T
 
  0.00000000E+00  0.00000000E+00  0.00000000E+00
  0.00000000E+00  0.00000000E+00  0.00000000E+00
  0.00000000E+00  0.00000000E+00  0.00000000E+00
  0.00000000E+00  0.00000000E+00  0.00000000E+00
  0.00000000E+00  0.00000000E+00  0.00000000E+00
  0.00000000E+00  0.00000000E+00  0.00000000E+00
  0.00000000E+00  0.00000000E+00  0.00000000E+00
  0.00000000E+00  0.00000000E+00  0.00000000E+00
  0.00000000E+00  0.00000000E+00  0.00000000E+00
  0.00000000E+00  0.00000000E+00  0.00000000E+00
  0.00000000E+00  0.00000000E+00  0.00000000E+00
  0.00000000E+00  0.00000000E+00  0.00000000E+00
  0.00000000E+00  0.00000000E+00  0.00000000E+00
  0.00000000E+00  0.00000000E+00  0.00000000E+00
  0.00000000E+00  0.00000000E+00  0.00000000E+00
  0.00000000E+00  0.00000000E+00  0.00000000E+00
  0.00000000E+00  0.00000000E+00  0.00000000E+00
  0.00000000E+00  0.00000000E+00  0.00000000E+00
  0.00000000E+00  0.00000000E+00  0.00000000E+00
  0.00000000E+00  0.00000000E+00  0.00000000E+00
  0.00000000E+00  0.00000000E+00  0.00000000E+00
  0.00000000E+00  0.00000000E+00  0.00000000E+00
  0.00000000E+00  0.00000000E+00  0.00000000E+00
  0.00000000E+00  0.00000000E+00  0.00000000E+00
  0.00000000E+00  0.00000000E+00  0.00000000E+00
  0.00000000E+00  0.00000000E+00  0.00000000E+00
  0.00000000E+00  0.00000000E+00  0.00000000E+00
  0.00000000E+00  0.00000000E+00  0.00000000E+00
  0.00000000E+00  0.00000000E+00  0.00000000E+00
  0.00000000E+00  0.00000000E+00  0.00000000E+00
  0.00000000E+00  0.00000000E+00  0.00000000E+00
  0.00000000E+00  0.00000000E+00  0.00000000E+00
  0.00000000E+00  0.00000000E+00  0.00000000E+00
  0.00000000E+00  0.00000000E+00  0.00000000E+00
  0.00000000E+00  0.00000000E+00  0.00000000E+00
  0.00000000E+00  0.00000000E+00  0.00000000E+00
  0.00000000E+00  0.00000000E+00  0.00000000E+00
  0.00000000E+00  0.00000000E+00  0.00000000E+00
  0.00000000E+00  0.00000000E+00  0.00000000E+00
  0.00000000E+00  0.00000000E+00  0.00000000E+00
  0.00000000E+00  0.00000000E+00  0.00000000E+00
  0.00000000E+00  0.00000000E+00  0.00000000E+00
  0.00000000E+00  0.00000000E+00  0.00000000E+00
  0.00000000E+00  0.00000000E+00  0.00000000E+00
  0.00000000E+00  0.00000000E+00  0.00000000E+00
  0.00000000E+00  0.00000000E+00  0.00000000E+00
  0.00000000E+00  0.00000000E+00  0.00000000E+00
  0.00000000E+00  0.00000000E+00  0.00000000E+00
  0.00000000E+00  0.00000000E+00  0.00000000E+00
  0.00000000E+00  0.00000000E+00  0.00000000E+00
  0.00000000E+00  0.00000000E+00  0.00000000E+00
  0.00000000E+00  0.00000000E+00  0.00000000E+00
  0.00000000E+00  0.00000000E+00  0.00000000E+00
  0.00000000E+00  0.00000000E+00  0.00000000E+00
  0.00000000E+00  0.00000000E+00  0.00000000E+00
  0.00000000E+00  0.00000000E+00  0.00000000E+00
  0.00000000E+00  0.00000000E+00  0.00000000E+00
  0.00000000E+00  0.00000000E+00  0.00000000E+00
  0.00000000E+00  0.00000000E+00  0.00000000E+00
  0.00000000E+00  0.00000000E+00  0.00000000E+00
  0.00000000E+00  0.00000000E+00  0.00000000E+00
  0.00000000E+00  0.00000000E+00  0.00000000E+00
  0.00000000E+00  0.00000000E+00  0.00000000E+00
  0.00000000E+00  0.00000000E+00  0.00000000E+00
  0.00000000E+00  0.00000000E+00  0.00000000E+00
  0.00000000E+00  0.00000000E+00  0.00000000E+00
  0.00000000E+00  0.00000000E+00  0.00000000E+00
  0.00000000E+00  0.00000000E+00  0.00000000E+00
  0.00000000E+00  0.00000000E+00  0.00000000E+00
  0.00000000E+00  0.00000000E+00  0.00000000E+00
  0.00000000E+00  0.00000000E+00  0.00000000E+00
  0.00000000E+00  0.00000000E+00  0.00000000E+00
  0.00000000E+00  0.00000000E+00  0.00000000E+00
  0.00000000E+00  0.00000000E+00  0.00000000E+00
  0.00000000E+00  0.00000000E+00  0.00000000E+00
  0.00000000E+00  0.00000000E+00  0.00000000E+00
  0.00000000E+00  0.00000000E+00  0.00000000E+00
  0.00000000E+00  0.00000000E+00  0.00000000E+00
  0.00000000E+00  0.00000000E+00  0.00000000E+00
  0.00000000E+00  0.00000000E+00  0.00000000E+00
  0.00000000E+00  0.00000000E+00  0.00000000E+00
  0.00000000E+00  0.00000000E+00  0.00000000E+00
  0.00000000E+00  0.00000000E+00  0.00000000E+00
  0.00000000E+00  0.00000000E+00  0.00000000E+00
  0.00000000E+00  0.00000000E+00  0.00000000E+00
  0.00000000E+00  0.00000000E+00  0.00000000E+00
  0.00000000E+00  0.00000000E+00  0.00000000E+00
  0.00000000E+00  0.00000000E+00  0.00000000E+00
  0.00000000E+00  0.00000000E+00  0.00000000E+00
  0.00000000E+00  0.00000000E+00  0.00000000E+00
  0.00000000E+00  0.00000000E+00  0.00000000E+00
  0.00000000E+00  0.00000000E+00  0.00000000E+00
  0.00000000E+00  0.00000000E+00  0.00000000E+00
  0.00000000E+00  0.00000000E+00  0.00000000E+00
  0.00000000E+00  0.00000000E+00  0.00000000E+00
  0.00000000E+00  0.00000000E+00  0.00000000E+00
  0.00000000E+00  0.00000000E+00  0.00000000E+00
  0.00000000E+00  0.00000000E+00  0.00000000E+00
  0.00000000E+00  0.00000000E+00  0.00000000E+00
  0.00000000E+00  0.00000000E+00  0.00000000E+00
  0.00000000E+00  0.00000000E+00  0.00000000E+00
  0.00000000E+00  0.00000000E+00  0.00000000E+00
  0.00000000E+00  0.00000000E+00  0.00000000E+00
  0.00000000E+00  0.00000000E+00  0.00000000E+00
  0.00000000E+00  0.00000000E+00  0.00000000E+00
  0.00000000E+00  0.00000000E+00  0.00000000E+00
  0.00000000E+00  0.00000000E+00  0.00000000E+00
  0.00000000E+00  0.00000000E+00  0.00000000E+00
  0.00000000E+00  0.00000000E+00  0.00000000E+00
  0.00000000E+00  0.00000000E+00  0.00000000E+00
  0.00000000E+00  0.00000000E+00  0.00000000E+00
  0.00000000E+00  0.00000000E+00  0.00000000E+00
  0.00000000E+00  0.00000000E+00  0.00000000E+00
  0.00000000E+00  0.00000000E+00  0.00000000E+00
  0.00000000E+00  0.00000000E+00  0.00000000E+00
  0.00000000E+00  0.00000000E+00  0.00000000E+00
  0.00000000E+00  0.00000000E+00  0.00000000E+00
  0.00000000E+00  0.00000000E+00  0.00000000E+00
  0.00000000E+00  0.00000000E+00  0.00000000E+00
  0.00000000E+00  0.00000000E+00  0.00000000E+00
  0.00000000E+00  0.00000000E+00  0.00000000E+00
  0.00000000E+00  0.00000000E+00  0.00000000E+00
  0.00000000E+00  0.00000000E+00  0.00000000E+00
  0.00000000E+00  0.00000000E+00  0.00000000E+00
  0.00000000E+00  0.00000000E+00  0.00000000E+00
  0.00000000E+00  0.00000000E+00  0.00000000E+00
  0.00000000E+00  0.00000000E+00  0.00000000E+00
  0.00000000E+00  0.00000000E+00  0.00000000E+00
  0.00000000E+00  0.00000000E+00  0.00000000E+00
  0.00000000E+00  0.00000000E+00  0.00000000E+00
  0.00000000E+00  0.00000000E+00  0.00000000E+00
  0.00000000E+00  0.00000000E+00  0.00000000E+00
  0.00000000E+00  0.00000000E+00  0.00000000E+00
  0.00000000E+00  0.00000000E+00  0.00000000E+00
  0.00000000E+00  0.00000000E+00  0.00000000E+00
  0.00000000E+00  0.00000000E+00  0.00000000E+00
  0.00000000E+00  0.00000000E+00  0.00000000E+00
  0.00000000E+00  0.00000000E+00  0.00000000E+00
  0.00000000E+00  0.00000000E+00  0.00000000E+00
  0.00000000E+00  0.00000000E+00  0.00000000E+00
  0.00000000E+00  0.00000000E+00  0.00000000E+00
  0.00000000E+00  0.00000000E+00  0.00000000E+00
  0.00000000E+00  0.00000000E+00  0.00000000E+00
  0.00000000E+00  0.00000000E+00  0.00000000E+00
  0.00000000E+00  0.00000000E+00  0.00000000E+00
  0.00000000E+00  0.00000000E+00  0.00000000E+00
  0.00000000E+00  0.00000000E+00  0.00000000E+00
  0.00000000E+00  0.00000000E+00  0.00000000E+00
  0.00000000E+00  0.00000000E+00  0.00000000E+00
  0.00000000E+00  0.00000000E+00  0.00000000E+00
  0.00000000E+00  0.00000000E+00  0.00000000E+00
  0.00000000E+00  0.00000000E+00  0.00000000E+00
  0.00000000E+00  0.00000000E+00  0.00000000E+00
  0.00000000E+00  0.00000000E+00  0.00000000E+00
  0.00000000E+00  0.00000000E+00  0.00000000E+00
  0.00000000E+00  0.00000000E+00  0.00000000E+00
  0.00000000E+00  0.00000000E+00  0.00000000E+00
  0.00000000E+00  0.00000000E+00  0.00000000E+00
  0.00000000E+00  0.00000000E+00  0.00000000E+00
  0.00000000E+00  0.00000000E+00  0.00000000E+00
  0.00000000E+00  0.00000000E+00  0.00000000E+00
  0.00000000E+00  0.00000000E+00  0.00000000E+00
  0.00000000E+00  0.00000000E+00  0.00000000E+00
  0.00000000E+00  0.00000000E+00  0.00000000E+00
  0.00000000E+00  0.00000000E+00  0.00000000E+00
  0.00000000E+00  0.00000000E+00  0.00000000E+00
  0.00000000E+00  0.00000000E+00  0.00000000E+00
  0.00000000E+00  0.00000000E+00  0.00000000E+00
  0.00000000E+00  0.00000000E+00  0.00000000E+00
  0.00000000E+00  0.00000000E+00  0.00000000E+00
  0.00000000E+00  0.00000000E+00  0.00000000E+00
  0.00000000E+00  0.00000000E+00  0.00000000E+00
  0.00000000E+00  0.00000000E+00  0.00000000E+00
  0.00000000E+00  0.00000000E+00  0.00000000E+00
  0.00000000E+00  0.00000000E+00  0.00000000E+00
  0.00000000E+00  0.00000000E+00  0.00000000E+00
  0.00000000E+00  0.00000000E+00  0.00000000E+00
  0.00000000E+00  0.00000000E+00  0.00000000E+00
  0.00000000E+00  0.00000000E+00  0.00000000E+00
  0.00000000E+00  0.00000000E+00  0.00000000E+00
  0.00000000E+00  0.00000000E+00  0.00000000E+00
  0.00000000E+00  0.00000000E+00  0.00000000E+00
  0.00000000E+00  0.00000000E+00  0.00000000E+00
  0.00000000E+00  0.00000000E+00  0.00000000E+00
  0.00000000E+00  0.00000000E+00  0.00000000E+00
  0.00000000E+00  0.00000000E+00  0.00000000E+00
  0.00000000E+00  0.00000000E+00  0.00000000E+00
  0.00000000E+00  0.00000000E+00  0.00000000E+00
  0.00000000E+00  0.00000000E+00  0.00000000E+00
  0.00000000E+00  0.00000000E+00  0.00000000E+00
  0.00000000E+00  0.00000000E+00  0.00000000E+00
  0.00000000E+00  0.00000000E+00  0.00000000E+00
  0.00000000E+00  0.00000000E+00  0.00000000E+00
  0.00000000E+00  0.00000000E+00  0.00000000E+00
  0.00000000E+00  0.00000000E+00  0.00000000E+00
  0.00000000E+00  0.00000000E+00  0.00000000E+00
  0.00000000E+00  0.00000000E+00  0.00000000E+00
  0.00000000E+00  0.00000000E+00  0.00000000E+00
  0.00000000E+00  0.00000000E+00  0.00000000E+00
  0.00000000E+00  0.00000000E+00  0.00000000E+00
  0.00000000E+00  0.00000000E+00  0.00000000E+00
  0.00000000E+00  0.00000000E+00  0.00000000E+00
  0.00000000E+00  0.00000000E+00  0.00000000E+00
  0.00000000E+00  0.00000000E+00  0.00000000E+00
  0.00000000E+00  0.00000000E+00  0.00000000E+00
  0.00000000E+00  0.00000000E+00  0.00000000E+00
  0.00000000E+00  0.00000000E+00  0.00000000E+00
  0.00000000E+00  0.00000000E+00  0.00000000E+00
  0.00000000E+00  0.00000000E+00  0.00000000E+00
  0.00000000E+00  0.00000000E+00  0.00000000E+00
  0.00000000E+00  0.00000000E+00  0.00000000E+00
  0.00000000E+00  0.00000000E+00  0.00000000E+00
  0.00000000E+00  0.00000000E+00  0.00000000E+00
  0.00000000E+00  0.00000000E+00  0.00000000E+00
  0.00000000E+00  0.00000000E+00  0.00000000E+00
  0.00000000E+00  0.00000000E+00  0.00000000E+00
  0.00000000E+00  0.00000000E+00  0.00000000E+00
  0.00000000E+00  0.00000000E+00  0.00000000E+00
  0.00000000E+00  0.00000000E+00  0.00000000E+00
  0.00000000E+00  0.00000000E+00  0.00000000E+00
  0.00000000E+00  0.00000000E+00  0.00000000E+00
  0.00000000E+00  0.00000000E+00  0.00000000E+00
  0.00000000E+00  0.00000000E+00  0.00000000E+00
  0.00000000E+00  0.00000000E+00  0.00000000E+00
  0.00000000E+00  0.00000000E+00  0.00000000E+00
  0.00000000E+00  0.00000000E+00  0.00000000E+00
  0.00000000E+00  0.00000000E+00  0.00000000E+00
  0.00000000E+00  0.00000000E+00  0.00000000E+00
  0.00000000E+00  0.00000000E+00  0.00000000E+00
  0.00000000E+00  0.00000000E+00  0.00000000E+00
  0.00000000E+00  0.00000000E+00  0.00000000E+00
  0.00000000E+00  0.00000000E+00  0.00000000E+00
  0.00000000E+00  0.00000000E+00  0.00000000E+00
  0.00000000E+00  0.00000000E+00  0.00000000E+00
  0.00000000E+00  0.00000000E+00  0.00000000E+00
  0.00000000E+00  0.00000000E+00  0.00000000E+00
  0.00000000E+00  0.00000000E+00  0.00000000E+00
  0.00000000E+00  0.00000000E+00  0.00000000E+00
  0.00000000E+00  0.00000000E+00  0.00000000E+00
