Ti  O                                   
   1.00000000000000     
    12.9930437378145687    0.0000000000000000    0.0000000000000000
     0.0000000000000000   11.7667138001023517    0.0000000000000000
     0.0000000000000000    0.0000000000000000   30.5357092178438165
   Ti   O 
    80   159
Selective dynamics
Direct
  0.5000000000000000  0.1250000000000000  0.2872483713228746   F   F   F
  0.2500000000000000  0.0000000000000000  0.2872483713228746   F   F   F
  0.2500000000000000  0.1250000000000000  0.3936241856614373   F   F   F
  0.5000000000000000  0.0000000000000000  0.3936241856614373   F   F   F
  0.5000000000000000  0.1250000000000000  0.5000000000000000   F   F   F
  0.2500000000000000  0.0000000000000000  0.5000000000000000   F   F   F
  0.2486643262682540  0.1248633855910440  0.6044421285734978   T   T   T
  0.5001102227346677  0.0000836769318781  0.6133144921529338   T   T   T
  0.4999993518253613  0.1216281532606298  0.7235652653112171   T   T   T
  0.7496388805338918  0.0000058432490913  0.7082227291111209   T   T   T
  0.5000000000000000  0.3750000000000000  0.2872483713228746   F   F   F
  0.2500000000000000  0.2500000000000000  0.2872483713228746   F   F   F
  0.2500000000000000  0.3750000000000000  0.3936241856614373   F   F   F
  0.5000000000000000  0.2500000000000000  0.3936241856614373   F   F   F
  0.5000000000000000  0.3750000000000000  0.5000000000000000   F   F   F
  0.2500000000000000  0.2500000000000000  0.5000000000000000   F   F   F
  0.2485192054847869  0.3749408928408412  0.6045455353153109   T   T   T
  0.4999743491088667  0.2477021733857352  0.6040523247504409   T   T   T
  0.4999937193431232  0.3560440309088723  0.7079536156684171   T   T   T
  0.7495820121032285  0.2498308567308419  0.7085417964544174   T   T   T
  0.5000000000000000  0.6250000000000000  0.2872483713228746   F   F   F
  0.2500000000000000  0.5000000000000000  0.2872483713228746   F   F   F
  0.2500000000000000  0.6250000000000000  0.3936241856614373   F   F   F
  0.5000000000000000  0.5000000000000000  0.3936241856614373   F   F   F
  0.5000000000000000  0.6250000000000000  0.5000000000000000   F   F   F
  0.2500000000000000  0.5000000000000000  0.5000000000000000   F   F   F
  0.2484811984127608  0.6249407055308872  0.6045457387265234   T   T   T
  0.5000596416377705  0.5000125509406188  0.6075139718439533   T   T   T
  0.4999948893884300  0.6439497136798371  0.7079586636526132   T   T   T
  0.7479119314932031  0.5000023926595522  0.7081838735553401   T   T   T
  0.5000000000000000  0.8750000000000000  0.2872483713228746   F   F   F
  0.2500000000000000  0.7500000000000000  0.2872483713228746   F   F   F
  0.2500000000000000  0.8750000000000000  0.3936241856614373   F   F   F
  0.5000000000000000  0.7500000000000000  0.3936241856614373   F   F   F
  0.5000000000000000  0.8750000000000000  0.5000000000000000   F   F   F
  0.2500000000000000  0.7500000000000000  0.5000000000000000   F   F   F
  0.2486284594301259  0.8750905260424303  0.6044288430504043   T   T   T
  0.4997764895078682  0.7523561009452514  0.6040765869726550   T   T   T
  0.4999999639028579  0.8783764510811911  0.7235658588027899   T   T   T
  0.7495889808969920  0.7501813047980704  0.7085466233021241   T   T   T
  0.0000000000000000  0.1250000000000000  0.2872483713228746   F   F   F
  0.7500000000000000  0.0000000000000000  0.2872483713228746   F   F   F
  0.7500000000000000  0.1250000000000000  0.3936241856614373   F   F   F
  0.0000000000000000  0.0000000000000000  0.3936241856614373   F   F   F
  0.0000000000000000  0.1250000000000000  0.5000000000000000   F   F   F
  0.7500000000000000  0.0000000000000000  0.5000000000000000   F   F   F
  0.7514190180903121  0.1249176372841892  0.6044237255709355   T   T   T
  0.0000075825539035 -0.0000173280000681  0.6096505167788931   T   T   T
  0.0000012633259903  0.1250097764628559  0.7190612562771679   T   T   T
  0.2503788854255299 -0.0000028226757908  0.7082244944102962   T   T   T
  0.0000000000000000  0.3750000000000000  0.2872483713228746   F   F   F
  0.7500000000000000  0.2500000000000000  0.2872483713228746   F   F   F
  0.7500000000000000  0.3750000000000000  0.3936241856614373   F   F   F
  0.0000000000000000  0.2500000000000000  0.3936241856614373   F   F   F
  0.0000000000000000  0.3750000000000000  0.5000000000000000   F   F   F
  0.7500000000000000  0.2500000000000000  0.5000000000000000   F   F   F
  0.7514982410075656  0.3750259144268565  0.6045545417555527   T   T   T
  0.0000252342507385  0.2499496011814824  0.6097350861455690   T   T   T
 -0.0000227701669203  0.3750127743919515  0.7192122351566591   T   T   T
  0.2504012407995072  0.2498348317421990  0.7085459355639527   T   T   T
  0.0000000000000000  0.6250000000000000  0.2872483713228746   F   F   F
  0.7500000000000000  0.5000000000000000  0.2872483713228746   F   F   F
  0.7500000000000000  0.6250000000000000  0.3936241856614373   F   F   F
  0.0000000000000000  0.5000000000000000  0.3936241856614373   F   F   F
  0.0000000000000000  0.6250000000000000  0.5000000000000000   F   F   F
  0.7500000000000000  0.5000000000000000  0.5000000000000000   F   F   F
  0.7514088948442845  0.6250379919861203  0.6045437257637402   T   T   T
 -0.0000165066580759  0.5000088029654596  0.6096846619035530   T   T   T
 -0.0000166117184705  0.6249912601349238  0.7192106121872155   T   T   T
  0.2520609165812803  0.4999990112577261  0.7081713529828827   T   T   T
  0.0000000000000000  0.8750000000000000  0.2872483713228746   F   F   F
  0.7500000000000000  0.7500000000000000  0.2872483713228746   F   F   F
  0.7500000000000000  0.8750000000000000  0.3936241856614373   F   F   F
  0.0000000000000000  0.7500000000000000  0.3936241856614373   F   F   F
  0.0000000000000000  0.8750000000000000  0.5000000000000000   F   F   F
  0.7500000000000000  0.7500000000000000  0.5000000000000000   F   F   F
  0.7512929246005101  0.8751094302896308  0.6044448206834998   T   T   T
 -0.0000413368829597  0.7500526705216382  0.6097331926759503   T   T   T
  0.0000073744139354  0.8749880503250710  0.7190589427336798   T   T   T
  0.2504039670621853  0.7501638107307474  0.7085398268451163   T   T   T
  0.3478471838984589  0.1250000000000000  0.2872483713228746   F   F   F
  0.6521528161015411  0.1250000000000000  0.2872483713228746   F   F   F
  0.5000000000000000  0.0000000000000000  0.2456140758511438   F   F   F
  0.5000000000000000  0.0000000000000000  0.3288826667946125   F   F   F
  0.5978471838984589  0.1250000000000000  0.3936241856614373   F   F   F
  0.4021528161015411  0.1250000000000000  0.3936241856614373   F   F   F
  0.2500000000000000  0.0000000000000000  0.3519898901897065   F   F   F
  0.2500000000000000  0.0000000000000000  0.4352584811331752   F   F   F
  0.3478471838984589  0.1250000000000000  0.5000000000000000   F   F   F
  0.6521528161015411  0.1250000000000000  0.5000000000000000   F   F   F
  0.5000000000000000  0.0000000000000000  0.4583657045282692   F   F   F
  0.5000000000000000  0.0000000000000000  0.5416342954717308   F   F   F
  0.5988957328585679  0.1249721220357893  0.6074836472006948   T   T   T
  0.4011278482317108  0.1249610062153278  0.6074848140810012   T   T   T
  0.2509103768396383 -0.0000039010043649  0.5653248024770302   T   T   T
  0.2515438727326011 -0.0000115857267840  0.6494122283949580   T   T   T
  0.3446801939113188  0.1244856593969887  0.7203564291708363   T   T   T
  0.6553209579554476  0.1244833309866297  0.7203535835851501   T   T   T
  0.5000120258082952  0.0000060204693903  0.6750730813929585   T   T   T
  0.5000010550481655 -0.0000031085108102  0.7600213107847119   T   T   T
  0.3478471838984589  0.3750000000000000  0.2872483713228746   F   F   F
  0.6521528161015411  0.3750000000000000  0.2872483713228746   F   F   F
  0.5000000000000000  0.2500000000000000  0.2456140758511438   F   F   F
  0.5000000000000000  0.2500000000000000  0.3288826667946125   F   F   F
  0.5978471838984589  0.3750000000000000  0.3936241856614373   F   F   F
  0.4021528161015411  0.3750000000000000  0.3936241856614373   F   F   F
  0.2500000000000000  0.2500000000000000  0.3519898901897065   F   F   F
  0.2500000000000000  0.2500000000000000  0.4352584811331752   F   F   F
  0.3478471838984589  0.3750000000000000  0.5000000000000000   F   F   F
  0.6521528161015411  0.3750000000000000  0.5000000000000000   F   F   F
  0.5000000000000000  0.2500000000000000  0.4583657045282692   F   F   F
  0.5000000000000000  0.2500000000000000  0.5416342954717308   F   F   F
  0.5983607774328553  0.3750838741822302  0.6082550422617194   T   T   T
  0.4016350783123164  0.3750604992372857  0.6082506689900729   T   T   T
  0.2517137713634178  0.2501549788763764  0.5653556147059408   T   T   T
  0.2512283171721149  0.2500330241374346  0.6496744839258284   T   T   T
  0.3487328742825480  0.3765571825997140  0.7188960606715810   T   T   T
  0.6512603685895418  0.3765605614795607  0.7188947683279215   T   T   T
  0.5000056691319377  0.2406071570719828  0.6711773789764778   T   T   T
  0.5000024973774745  0.2557722221786607  0.7537355153947747   T   T   T
  0.3478471838984589  0.6250000000000000  0.2872483713228746   F   F   F
  0.6521528161015411  0.6250000000000000  0.2872483713228746   F   F   F
  0.5000000000000000  0.5000000000000000  0.2456140758511438   F   F   F
  0.5000000000000000  0.5000000000000000  0.3288826667946125   F   F   F
  0.5978471838984589  0.6250000000000000  0.3936241856614373   F   F   F
  0.4021528161015411  0.6250000000000000  0.3936241856614373   F   F   F
  0.2500000000000000  0.5000000000000000  0.3519898901897065   F   F   F
  0.2500000000000000  0.5000000000000000  0.4352584811331752   F   F   F
  0.3478471838984589  0.6250000000000000  0.5000000000000000   F   F   F
  0.6521528161015411  0.6250000000000000  0.5000000000000000   F   F   F
  0.5000000000000000  0.5000000000000000  0.4583657045282692   F   F   F
  0.5000000000000000  0.5000000000000000  0.5416342954717308   F   F   F
  0.5983385495504007  0.6249335752069116  0.6082536223126529   T   T   T
  0.4016149250366524  0.6249216624409646  0.6082555763242573   T   T   T
  0.2519807635143291  0.4999727981580577  0.5653464542934611   T   T   T
  0.2504741955656268  0.4999795224111140  0.6494287903132063   T   T   T
  0.3487372472987010  0.6234356671641905  0.7188949486771041   T   T   T
  0.6512612861785148  0.6234401540421104  0.7188975835039109   T   T   T
  0.4999980916406300  0.4999994092725105  0.6763468179020719   T   T   T
  0.3478471838984589  0.8750000000000000  0.2872483713228746   F   F   F
  0.6521528161015411  0.8750000000000000  0.2872483713228746   F   F   F
  0.5000000000000000  0.7500000000000000  0.2456140758511438   F   F   F
  0.5000000000000000  0.7500000000000000  0.3288826667946125   F   F   F
  0.5978471838984589  0.8750000000000000  0.3936241856614373   F   F   F
  0.4021528161015411  0.8750000000000000  0.3936241856614373   F   F   F
  0.2500000000000000  0.7500000000000000  0.3519898901897065   F   F   F
  0.2500000000000000  0.7500000000000000  0.4352584811331752   F   F   F
  0.3478471838984589  0.8750000000000000  0.5000000000000000   F   F   F
  0.6521528161015411  0.8750000000000000  0.5000000000000000   F   F   F
  0.5000000000000000  0.7500000000000000  0.4583657045282692   F   F   F
  0.5000000000000000  0.7500000000000000  0.5416342954717308   F   F   F
  0.5988640760974530  0.8750268956207753  0.6074910042167637   T   T   T
  0.4010993574777426  0.8750911443298270  0.6074846652657210   T   T   T
  0.2517259721787433  0.7497899382144215  0.5653589653273575   T   T   T
  0.2512303909422254  0.7499573534661188  0.6496719540794691   T   T   T
  0.3446829243116437  0.8755135329833670  0.7203538491054023   T   T   T
  0.6553193491482114  0.8755145702235766  0.7203490960117989   T   T   T
  0.4999711843241706  0.7593810790738729  0.6711799226407498   T   T   T
  0.5000053358788339  0.7442294736360523  0.7537367931581108   T   T   T
  0.8478471838984589  0.1250000000000000  0.2872483713228746   F   F   F
  0.1521528161015411  0.1250000000000000  0.2872483713228746   F   F   F
  0.0000000000000000  0.0000000000000000  0.2456140758511438   F   F   F
  0.0000000000000000  0.0000000000000000  0.3288826667946125   F   F   F
  0.0978471838984589  0.1250000000000000  0.3936241856614373   F   F   F
  0.9021528161015411  0.1250000000000000  0.3936241856614373   F   F   F
  0.7500000000000000  0.0000000000000000  0.3519898901897065   F   F   F
  0.7500000000000000  0.0000000000000000  0.4352584811331752   F   F   F
  0.8478471838984589  0.1250000000000000  0.5000000000000000   F   F   F
  0.1521528161015411  0.1250000000000000  0.5000000000000000   F   F   F
  0.0000000000000000  0.0000000000000000  0.4583657045282692   F   F   F
  0.0000000000000000  0.0000000000000000  0.5416342954717308   F   F   F
  0.1004766571275693  0.1251251096912565  0.6070407720530978   T   T   T
  0.8995328052419730  0.1251253875892143  0.6070324442113122   T   T   T
  0.7490719311751974  0.0000052754566173  0.5653282519371580   T   T   T
  0.7484527832099952  0.0000272660855232  0.6494114942919288   T   T   T
  0.8431401204720940  0.1256945998088758  0.7186375359217351   T   T   T
  0.1568558816164473  0.1256834159930019  0.7186407863425455   T   T   T
 -0.0000029144862433  0.0000055527798940  0.6710918251239635   T   T   T
 -0.0000049272211559 -0.0000048164271323  0.7542870378831406   T   T   T
  0.8478471838984589  0.3750000000000000  0.2872483713228746   F   F   F
  0.1521528161015411  0.3750000000000000  0.2872483713228746   F   F   F
  0.0000000000000000  0.2500000000000000  0.2456140758511438   F   F   F
  0.0000000000000000  0.2500000000000000  0.3288826667946125   F   F   F
  0.0978471838984589  0.3750000000000000  0.3936241856614373   F   F   F
  0.9021528161015411  0.3750000000000000  0.3936241856614373   F   F   F
  0.7500000000000000  0.2500000000000000  0.3519898901897065   F   F   F
  0.7500000000000000  0.2500000000000000  0.4352584811331752   F   F   F
  0.8478471838984589  0.3750000000000000  0.5000000000000000   F   F   F
  0.1521528161015411  0.3750000000000000  0.5000000000000000   F   F   F
  0.0000000000000000  0.2500000000000000  0.4583657045282692   F   F   F
  0.0000000000000000  0.2500000000000000  0.5416342954717308   F   F   F
  0.1005144772648289  0.3750613871967137  0.6069220883247405   T   T   T
  0.8994823936228468  0.3750638561822487  0.6069217256668185   T   T   T
  0.7482755248436656  0.2502195479647530  0.5653555689581350   T   T   T
  0.7487692503449397  0.2500409695707381  0.6496720478371676   T   T   T
  0.8412737568026250  0.3751177202740600  0.7195391331567955   T   T   T
  0.1587098053508774  0.3751214869714175  0.7195357062695216   T   T   T
 -0.0000101615415071  0.2506961565429078  0.6711361793077516   T   T   T
  0.0000022236930823  0.2501812510097901  0.7543495331390460   T   T   T
  0.8478471838984589  0.6250000000000000  0.2872483713228746   F   F   F
  0.1521528161015411  0.6250000000000000  0.2872483713228746   F   F   F
  0.0000000000000000  0.5000000000000000  0.2456140758511438   F   F   F
  0.0000000000000000  0.5000000000000000  0.3288826667946125   F   F   F
  0.0978471838984589  0.6250000000000000  0.3936241856614373   F   F   F
  0.9021528161015411  0.6250000000000000  0.3936241856614373   F   F   F
  0.7500000000000000  0.5000000000000000  0.3519898901897065   F   F   F
  0.7500000000000000  0.5000000000000000  0.4352584811331752   F   F   F
  0.8478471838984589  0.6250000000000000  0.5000000000000000   F   F   F
  0.1521528161015411  0.6250000000000000  0.5000000000000000   F   F   F
  0.0000000000000000  0.5000000000000000  0.4583657045282692   F   F   F
  0.0000000000000000  0.5000000000000000  0.5416342954717308   F   F   F
  0.1005070692867738  0.6249371807479140  0.6069234086336031   T   T   T
  0.8994751701989024  0.6249275900591876  0.6069226293063750   T   T   T
  0.7480072458908059  0.5000094519361196  0.5653470861609556   T   T   T
  0.7495177810085050  0.5000094079794973  0.6494343648744308   T   T   T
  0.8412746022535122  0.6248818823145249  0.7195398207143232   T   T   T
  0.1587130812858405  0.6248797098739404  0.7195306039235367   T   T   T
 -0.0000044616871919  0.4999957455191736  0.6711949547088777   T   T   T
 -0.0000041980091753  0.5000027766804265  0.7544081874460830   T   T   T
  0.8478471838984589  0.8750000000000000  0.2872483713228746   F   F   F
  0.1521528161015411  0.8750000000000000  0.2872483713228746   F   F   F
  0.0000000000000000  0.7500000000000000  0.2456140758511438   F   F   F
  0.0000000000000000  0.7500000000000000  0.3288826667946125   F   F   F
  0.0978471838984589  0.8750000000000000  0.3936241856614373   F   F   F
  0.9021528161015411  0.8750000000000000  0.3936241856614373   F   F   F
  0.7500000000000000  0.7500000000000000  0.3519898901897065   F   F   F
  0.7500000000000000  0.7500000000000000  0.4352584811331752   F   F   F
  0.8478471838984589  0.8750000000000000  0.5000000000000000   F   F   F
  0.1521528161015411  0.8750000000000000  0.5000000000000000   F   F   F
  0.0000000000000000  0.7500000000000000  0.4583657045282692   F   F   F
  0.0000000000000000  0.7500000000000000  0.5416342954717308   F   F   F
  0.1004675295571890  0.8748711953239326  0.6070348944919962   T   T   T
  0.8995182748611875  0.8748944015533840  0.6070401096704745   T   T   T
  0.7482863548630883  0.7498327269313740  0.5653600442133950   T   T   T
  0.7487656421146419  0.7499630099722343  0.6496757335251004   T   T   T
  0.8431412058329787  0.8743094689044140  0.7186361144910296   T   T   T
  0.1568594873399123  0.8743116482282285  0.7186370937462759   T   T   T
 -0.0000070350800763  0.7493034326965449  0.6711370815015073   T   T   T
  0.0000004963637552  0.7498219878883144  0.7543482779164793   T   T   T
 
  0.00000000E+00  0.00000000E+00  0.00000000E+00
  0.00000000E+00  0.00000000E+00  0.00000000E+00
  0.00000000E+00  0.00000000E+00  0.00000000E+00
  0.00000000E+00  0.00000000E+00  0.00000000E+00
  0.00000000E+00  0.00000000E+00  0.00000000E+00
  0.00000000E+00  0.00000000E+00  0.00000000E+00
  0.00000000E+00  0.00000000E+00  0.00000000E+00
  0.00000000E+00  0.00000000E+00  0.00000000E+00
  0.00000000E+00  0.00000000E+00  0.00000000E+00
  0.00000000E+00  0.00000000E+00  0.00000000E+00
  0.00000000E+00  0.00000000E+00  0.00000000E+00
  0.00000000E+00  0.00000000E+00  0.00000000E+00
  0.00000000E+00  0.00000000E+00  0.00000000E+00
  0.00000000E+00  0.00000000E+00  0.00000000E+00
  0.00000000E+00  0.00000000E+00  0.00000000E+00
  0.00000000E+00  0.00000000E+00  0.00000000E+00
  0.00000000E+00  0.00000000E+00  0.00000000E+00
  0.00000000E+00  0.00000000E+00  0.00000000E+00
  0.00000000E+00  0.00000000E+00  0.00000000E+00
  0.00000000E+00  0.00000000E+00  0.00000000E+00
  0.00000000E+00  0.00000000E+00  0.00000000E+00
  0.00000000E+00  0.00000000E+00  0.00000000E+00
  0.00000000E+00  0.00000000E+00  0.00000000E+00
  0.00000000E+00  0.00000000E+00  0.00000000E+00
  0.00000000E+00  0.00000000E+00  0.00000000E+00
  0.00000000E+00  0.00000000E+00  0.00000000E+00
  0.00000000E+00  0.00000000E+00  0.00000000E+00
  0.00000000E+00  0.00000000E+00  0.00000000E+00
  0.00000000E+00  0.00000000E+00  0.00000000E+00
  0.00000000E+00  0.00000000E+00  0.00000000E+00
  0.00000000E+00  0.00000000E+00  0.00000000E+00
  0.00000000E+00  0.00000000E+00  0.00000000E+00
  0.00000000E+00  0.00000000E+00  0.00000000E+00
  0.00000000E+00  0.00000000E+00  0.00000000E+00
  0.00000000E+00  0.00000000E+00  0.00000000E+00
  0.00000000E+00  0.00000000E+00  0.00000000E+00
  0.00000000E+00  0.00000000E+00  0.00000000E+00
  0.00000000E+00  0.00000000E+00  0.00000000E+00
  0.00000000E+00  0.00000000E+00  0.00000000E+00
  0.00000000E+00  0.00000000E+00  0.00000000E+00
  0.00000000E+00  0.00000000E+00  0.00000000E+00
  0.00000000E+00  0.00000000E+00  0.00000000E+00
  0.00000000E+00  0.00000000E+00  0.00000000E+00
  0.00000000E+00  0.00000000E+00  0.00000000E+00
  0.00000000E+00  0.00000000E+00  0.00000000E+00
  0.00000000E+00  0.00000000E+00  0.00000000E+00
  0.00000000E+00  0.00000000E+00  0.00000000E+00
  0.00000000E+00  0.00000000E+00  0.00000000E+00
  0.00000000E+00  0.00000000E+00  0.00000000E+00
  0.00000000E+00  0.00000000E+00  0.00000000E+00
  0.00000000E+00  0.00000000E+00  0.00000000E+00
  0.00000000E+00  0.00000000E+00  0.00000000E+00
  0.00000000E+00  0.00000000E+00  0.00000000E+00
  0.00000000E+00  0.00000000E+00  0.00000000E+00
  0.00000000E+00  0.00000000E+00  0.00000000E+00
  0.00000000E+00  0.00000000E+00  0.00000000E+00
  0.00000000E+00  0.00000000E+00  0.00000000E+00
  0.00000000E+00  0.00000000E+00  0.00000000E+00
  0.00000000E+00  0.00000000E+00  0.00000000E+00
  0.00000000E+00  0.00000000E+00  0.00000000E+00
  0.00000000E+00  0.00000000E+00  0.00000000E+00
  0.00000000E+00  0.00000000E+00  0.00000000E+00
  0.00000000E+00  0.00000000E+00  0.00000000E+00
  0.00000000E+00  0.00000000E+00  0.00000000E+00
  0.00000000E+00  0.00000000E+00  0.00000000E+00
  0.00000000E+00  0.00000000E+00  0.00000000E+00
  0.00000000E+00  0.00000000E+00  0.00000000E+00
  0.00000000E+00  0.00000000E+00  0.00000000E+00
  0.00000000E+00  0.00000000E+00  0.00000000E+00
  0.00000000E+00  0.00000000E+00  0.00000000E+00
  0.00000000E+00  0.00000000E+00  0.00000000E+00
  0.00000000E+00  0.00000000E+00  0.00000000E+00
  0.00000000E+00  0.00000000E+00  0.00000000E+00
  0.00000000E+00  0.00000000E+00  0.00000000E+00
  0.00000000E+00  0.00000000E+00  0.00000000E+00
  0.00000000E+00  0.00000000E+00  0.00000000E+00
  0.00000000E+00  0.00000000E+00  0.00000000E+00
  0.00000000E+00  0.00000000E+00  0.00000000E+00
  0.00000000E+00  0.00000000E+00  0.00000000E+00
  0.00000000E+00  0.00000000E+00  0.00000000E+00
  0.00000000E+00  0.00000000E+00  0.00000000E+00
  0.00000000E+00  0.00000000E+00  0.00000000E+00
  0.00000000E+00  0.00000000E+00  0.00000000E+00
  0.00000000E+00  0.00000000E+00  0.00000000E+00
  0.00000000E+00  0.00000000E+00  0.00000000E+00
  0.00000000E+00  0.00000000E+00  0.00000000E+00
  0.00000000E+00  0.00000000E+00  0.00000000E+00
  0.00000000E+00  0.00000000E+00  0.00000000E+00
  0.00000000E+00  0.00000000E+00  0.00000000E+00
  0.00000000E+00  0.00000000E+00  0.00000000E+00
  0.00000000E+00  0.00000000E+00  0.00000000E+00
  0.00000000E+00  0.00000000E+00  0.00000000E+00
  0.00000000E+00  0.00000000E+00  0.00000000E+00
  0.00000000E+00  0.00000000E+00  0.00000000E+00
  0.00000000E+00  0.00000000E+00  0.00000000E+00
  0.00000000E+00  0.00000000E+00  0.00000000E+00
  0.00000000E+00  0.00000000E+00  0.00000000E+00
  0.00000000E+00  0.00000000E+00  0.00000000E+00
  0.00000000E+00  0.00000000E+00  0.00000000E+00
  0.00000000E+00  0.00000000E+00  0.00000000E+00
  0.00000000E+00  0.00000000E+00  0.00000000E+00
  0.00000000E+00  0.00000000E+00  0.00000000E+00
  0.00000000E+00  0.00000000E+00  0.00000000E+00
  0.00000000E+00  0.00000000E+00  0.00000000E+00
  0.00000000E+00  0.00000000E+00  0.00000000E+00
  0.00000000E+00  0.00000000E+00  0.00000000E+00
  0.00000000E+00  0.00000000E+00  0.00000000E+00
  0.00000000E+00  0.00000000E+00  0.00000000E+00
  0.00000000E+00  0.00000000E+00  0.00000000E+00
  0.00000000E+00  0.00000000E+00  0.00000000E+00
  0.00000000E+00  0.00000000E+00  0.00000000E+00
  0.00000000E+00  0.00000000E+00  0.00000000E+00
  0.00000000E+00  0.00000000E+00  0.00000000E+00
  0.00000000E+00  0.00000000E+00  0.00000000E+00
  0.00000000E+00  0.00000000E+00  0.00000000E+00
  0.00000000E+00  0.00000000E+00  0.00000000E+00
  0.00000000E+00  0.00000000E+00  0.00000000E+00
  0.00000000E+00  0.00000000E+00  0.00000000E+00
  0.00000000E+00  0.00000000E+00  0.00000000E+00
  0.00000000E+00  0.00000000E+00  0.00000000E+00
  0.00000000E+00  0.00000000E+00  0.00000000E+00
  0.00000000E+00  0.00000000E+00  0.00000000E+00
  0.00000000E+00  0.00000000E+00  0.00000000E+00
  0.00000000E+00  0.00000000E+00  0.00000000E+00
  0.00000000E+00  0.00000000E+00  0.00000000E+00
  0.00000000E+00  0.00000000E+00  0.00000000E+00
  0.00000000E+00  0.00000000E+00  0.00000000E+00
  0.00000000E+00  0.00000000E+00  0.00000000E+00
  0.00000000E+00  0.00000000E+00  0.00000000E+00
  0.00000000E+00  0.00000000E+00  0.00000000E+00
  0.00000000E+00  0.00000000E+00  0.00000000E+00
  0.00000000E+00  0.00000000E+00  0.00000000E+00
  0.00000000E+00  0.00000000E+00  0.00000000E+00
  0.00000000E+00  0.00000000E+00  0.00000000E+00
  0.00000000E+00  0.00000000E+00  0.00000000E+00
  0.00000000E+00  0.00000000E+00  0.00000000E+00
  0.00000000E+00  0.00000000E+00  0.00000000E+00
  0.00000000E+00  0.00000000E+00  0.00000000E+00
  0.00000000E+00  0.00000000E+00  0.00000000E+00
  0.00000000E+00  0.00000000E+00  0.00000000E+00
  0.00000000E+00  0.00000000E+00  0.00000000E+00
  0.00000000E+00  0.00000000E+00  0.00000000E+00
  0.00000000E+00  0.00000000E+00  0.00000000E+00
  0.00000000E+00  0.00000000E+00  0.00000000E+00
  0.00000000E+00  0.00000000E+00  0.00000000E+00
  0.00000000E+00  0.00000000E+00  0.00000000E+00
  0.00000000E+00  0.00000000E+00  0.00000000E+00
  0.00000000E+00  0.00000000E+00  0.00000000E+00
  0.00000000E+00  0.00000000E+00  0.00000000E+00
  0.00000000E+00  0.00000000E+00  0.00000000E+00
  0.00000000E+00  0.00000000E+00  0.00000000E+00
  0.00000000E+00  0.00000000E+00  0.00000000E+00
  0.00000000E+00  0.00000000E+00  0.00000000E+00
  0.00000000E+00  0.00000000E+00  0.00000000E+00
  0.00000000E+00  0.00000000E+00  0.00000000E+00
  0.00000000E+00  0.00000000E+00  0.00000000E+00
  0.00000000E+00  0.00000000E+00  0.00000000E+00
  0.00000000E+00  0.00000000E+00  0.00000000E+00
  0.00000000E+00  0.00000000E+00  0.00000000E+00
  0.00000000E+00  0.00000000E+00  0.00000000E+00
  0.00000000E+00  0.00000000E+00  0.00000000E+00
  0.00000000E+00  0.00000000E+00  0.00000000E+00
  0.00000000E+00  0.00000000E+00  0.00000000E+00
  0.00000000E+00  0.00000000E+00  0.00000000E+00
  0.00000000E+00  0.00000000E+00  0.00000000E+00
  0.00000000E+00  0.00000000E+00  0.00000000E+00
  0.00000000E+00  0.00000000E+00  0.00000000E+00
  0.00000000E+00  0.00000000E+00  0.00000000E+00
  0.00000000E+00  0.00000000E+00  0.00000000E+00
  0.00000000E+00  0.00000000E+00  0.00000000E+00
  0.00000000E+00  0.00000000E+00  0.00000000E+00
  0.00000000E+00  0.00000000E+00  0.00000000E+00
  0.00000000E+00  0.00000000E+00  0.00000000E+00
  0.00000000E+00  0.00000000E+00  0.00000000E+00
  0.00000000E+00  0.00000000E+00  0.00000000E+00
  0.00000000E+00  0.00000000E+00  0.00000000E+00
  0.00000000E+00  0.00000000E+00  0.00000000E+00
  0.00000000E+00  0.00000000E+00  0.00000000E+00
  0.00000000E+00  0.00000000E+00  0.00000000E+00
  0.00000000E+00  0.00000000E+00  0.00000000E+00
  0.00000000E+00  0.00000000E+00  0.00000000E+00
  0.00000000E+00  0.00000000E+00  0.00000000E+00
  0.00000000E+00  0.00000000E+00  0.00000000E+00
  0.00000000E+00  0.00000000E+00  0.00000000E+00
  0.00000000E+00  0.00000000E+00  0.00000000E+00
  0.00000000E+00  0.00000000E+00  0.00000000E+00
  0.00000000E+00  0.00000000E+00  0.00000000E+00
  0.00000000E+00  0.00000000E+00  0.00000000E+00
  0.00000000E+00  0.00000000E+00  0.00000000E+00
  0.00000000E+00  0.00000000E+00  0.00000000E+00
  0.00000000E+00  0.00000000E+00  0.00000000E+00
  0.00000000E+00  0.00000000E+00  0.00000000E+00
  0.00000000E+00  0.00000000E+00  0.00000000E+00
  0.00000000E+00  0.00000000E+00  0.00000000E+00
  0.00000000E+00  0.00000000E+00  0.00000000E+00
  0.00000000E+00  0.00000000E+00  0.00000000E+00
  0.00000000E+00  0.00000000E+00  0.00000000E+00
  0.00000000E+00  0.00000000E+00  0.00000000E+00
  0.00000000E+00  0.00000000E+00  0.00000000E+00
  0.00000000E+00  0.00000000E+00  0.00000000E+00
  0.00000000E+00  0.00000000E+00  0.00000000E+00
  0.00000000E+00  0.00000000E+00  0.00000000E+00
  0.00000000E+00  0.00000000E+00  0.00000000E+00
  0.00000000E+00  0.00000000E+00  0.00000000E+00
  0.00000000E+00  0.00000000E+00  0.00000000E+00
  0.00000000E+00  0.00000000E+00  0.00000000E+00
  0.00000000E+00  0.00000000E+00  0.00000000E+00
  0.00000000E+00  0.00000000E+00  0.00000000E+00
  0.00000000E+00  0.00000000E+00  0.00000000E+00
  0.00000000E+00  0.00000000E+00  0.00000000E+00
  0.00000000E+00  0.00000000E+00  0.00000000E+00
  0.00000000E+00  0.00000000E+00  0.00000000E+00
  0.00000000E+00  0.00000000E+00  0.00000000E+00
  0.00000000E+00  0.00000000E+00  0.00000000E+00
  0.00000000E+00  0.00000000E+00  0.00000000E+00
  0.00000000E+00  0.00000000E+00  0.00000000E+00
  0.00000000E+00  0.00000000E+00  0.00000000E+00
  0.00000000E+00  0.00000000E+00  0.00000000E+00
  0.00000000E+00  0.00000000E+00  0.00000000E+00
  0.00000000E+00  0.00000000E+00  0.00000000E+00
  0.00000000E+00  0.00000000E+00  0.00000000E+00
  0.00000000E+00  0.00000000E+00  0.00000000E+00
  0.00000000E+00  0.00000000E+00  0.00000000E+00
  0.00000000E+00  0.00000000E+00  0.00000000E+00
  0.00000000E+00  0.00000000E+00  0.00000000E+00
  0.00000000E+00  0.00000000E+00  0.00000000E+00
  0.00000000E+00  0.00000000E+00  0.00000000E+00
  0.00000000E+00  0.00000000E+00  0.00000000E+00
  0.00000000E+00  0.00000000E+00  0.00000000E+00
  0.00000000E+00  0.00000000E+00  0.00000000E+00
  0.00000000E+00  0.00000000E+00  0.00000000E+00
  0.00000000E+00  0.00000000E+00  0.00000000E+00
  0.00000000E+00  0.00000000E+00  0.00000000E+00
  0.00000000E+00  0.00000000E+00  0.00000000E+00
  0.00000000E+00  0.00000000E+00  0.00000000E+00
  0.00000000E+00  0.00000000E+00  0.00000000E+00
  0.00000000E+00  0.00000000E+00  0.00000000E+00
  0.00000000E+00  0.00000000E+00  0.00000000E+00
  0.00000000E+00  0.00000000E+00  0.00000000E+00
