 O Ti 
 1.0000000000000000
    13.0160748915413169    0.0000000000000000    0.0000000000000000
     0.0000000000000000   17.7665561607577871    0.0000000000000000
     0.0000000000000000    0.0000000000000000   31.5655356285642696
   O  Ti
 240 120
Selective dynamics
Direct
  0.0977323101498797  0.0833333333333333  0.2937409704476490   F   F   F
  0.4022676898501203  0.0833333333333333  0.2937409704476490   F   F   F
  0.2500000000000000  0.0000000000000000  0.2534409710051188   F   F   F
  0.2500000000000000  0.0000000000000000  0.3340409698901790   F   F   F
  0.3477323101498797  0.0833333333333333  0.3968286785472537   F   F   F
  0.1522676898501203  0.0833333333333333  0.3968286785472537   F   F   F
  0.0000000000000000  0.0000000000000000  0.3565286791047362   F   F   F
  0.0000000000000000  0.0000000000000000  0.4371286779897840   F   F   F
  0.0977323101498797  0.0833333333333333  0.4999163866468711   F   F   F
  0.4022676898501203  0.0833333333333333  0.4999163866468711   F   F   F
  0.2500000000000000  0.0000000000000000  0.4596163872043412   F   F   F
  0.2500000000000000  0.0000000000000000  0.5402163860894011   F   F   F
  0.3499605291145020  0.0833333414647188  0.6034772240819479   T   T   T
  0.1500417087196456  0.0833333468685667  0.6034773962401084   T   T   T
  0.0000006479079549  0.9999999961348354  0.5631820646404226   T   T   T
  0.0000007263748976  0.0000000205822729  0.6439184740824525   T   T   T
  0.0936352348644687  0.0833333005748684  0.7113467787171101   T   T   T
  0.4063657135038983  0.0833333059612228  0.7113468490114315   T   T   T
  0.2500005756684493  0.3333333267177306  0.6658253350306893   T   T   T
  0.2500002357844248  0.0000000564161976  0.7465590289948811   T   T   T
  0.0977323101498797  0.2500000000000000  0.2937409704476490   F   F   F
  0.4022676898501203  0.2500000000000000  0.2937409704476490   F   F   F
  0.2500000000000000  0.1666666666666667  0.2534409710051188   F   F   F
  0.2500000000000000  0.1666666666666667  0.3340409698901790   F   F   F
  0.3477323101498797  0.2500000000000000  0.3968286785472537   F   F   F
  0.1522676898501203  0.2500000000000000  0.3968286785472537   F   F   F
  0.0000000000000000  0.1666666666666667  0.3565286791047362   F   F   F
  0.0000000000000000  0.1666666666666667  0.4371286779897840   F   F   F
  0.0977323101498797  0.2500000000000000  0.4999163866468711   F   F   F
  0.4022676898501203  0.2500000000000000  0.4999163866468711   F   F   F
  0.2500000000000000  0.1666666666666667  0.4596163872043412   F   F   F
  0.2500000000000000  0.1666666666666667  0.5402163860894011   F   F   F
  0.3499605231504143  0.2499999751316317  0.6034772295433547   T   T   T
  0.1500417129587476  0.2499999842176285  0.6034774024401105   T   T   T
  0.0000006594552799  0.1666666791652192  0.5631820518414188   T   T   T
  0.0000007413255520  0.1666666422156088  0.6439184439851083   T   T   T
  0.0936352400005605  0.2500000305991551  0.7113467414328105   T   T   T
  0.4063656645372458  0.2500000433023074  0.7113468071480397   T   T   T
  0.2500005815060203  0.1666666361800532  0.6658252918301809   T   T   T
  0.2500002067803934  0.1666666113204327  0.7465589428978480   T   T   T
  0.0977323101498797  0.4166666666666667  0.2937409704476490   F   F   F
  0.4022676898501203  0.4166666666666667  0.2937409704476490   F   F   F
  0.2500000000000000  0.3333333333333334  0.2534409710051188   F   F   F
  0.2500000000000000  0.3333333333333334  0.3340409698901790   F   F   F
  0.3477323101498797  0.4166666666666667  0.3968286785472537   F   F   F
  0.1522676898501203  0.4166666666666667  0.3968286785472537   F   F   F
  0.0000000000000000  0.3333333333333334  0.3565286791047362   F   F   F
  0.0000000000000000  0.3333333333333334  0.4371286779897840   F   F   F
  0.0977323101498797  0.4166666666666667  0.4999163866468711   F   F   F
  0.4022676898501203  0.4166666666666667  0.4999163866468711   F   F   F
  0.2500000000000000  0.3333333333333334  0.4596163872043412   F   F   F
  0.2500000000000000  0.3333333333333334  0.5402163860894011   F   F   F
  0.3499605291145020  0.4166666747980521  0.6034772240819479   T   T   T
  0.1500417087196456  0.4166666802019000  0.6034773962401084   T   T   T
  0.0000006479079549  0.3333333294681687  0.5631820646404226   T   T   T
  0.0000007263748976  0.3333333539156063  0.6439184740824525   T   T   T
  0.0936352348644687  0.4166666339082017  0.7113467787171101   T   T   T
  0.4063657135038983  0.4166666392945561  0.7113468490114315   T   T   T
  0.2500005756684493  0.6666666600510640  0.6658253350306893   T   T   T
  0.2500002357844248  0.3333333897495310  0.7465590289948811   T   T   T
  0.0977323101498797  0.5833333333333334  0.2937409704476490   F   F   F
  0.4022676898501203  0.5833333333333334  0.2937409704476490   F   F   F
  0.2500000000000000  0.5000000000000000  0.2534409710051188   F   F   F
  0.2500000000000000  0.5000000000000000  0.3340409698901790   F   F   F
  0.3477323101498797  0.5833333333333334  0.3968286785472537   F   F   F
  0.1522676898501203  0.5833333333333334  0.3968286785472537   F   F   F
  0.0000000000000000  0.5000000000000000  0.3565286791047362   F   F   F
  0.0000000000000000  0.5000000000000000  0.4371286779897840   F   F   F
  0.0977323101498797  0.5833333333333334  0.4999163866468711   F   F   F
  0.4022676898501203  0.5833333333333334  0.4999163866468711   F   F   F
  0.2500000000000000  0.5000000000000000  0.4596163872043412   F   F   F
  0.2500000000000000  0.5000000000000000  0.5402163860894011   F   F   F
  0.3499605231504143  0.5833333084649650  0.6034772295433547   T   T   T
  0.1500417129587476  0.5833333175509620  0.6034774024401105   T   T   T
  0.0000006594552799  0.5000000124985525  0.5631820518414188   T   T   T
  0.0000007413255520  0.4999999755489422  0.6439184439851083   T   T   T
  0.0936352400005605  0.5833333639324885  0.7113467414328105   T   T   T
  0.4063656645372458  0.5833333766356407  0.7113468071480397   T   T   T
  0.2500005815060203  0.4999999695133865  0.6658252918301809   T   T   T
  0.2500002067803934  0.4999999446537660  0.7465589428978480   T   T   T
  0.0977323101498797  0.7500000000000000  0.2937409704476490   F   F   F
  0.4022676898501203  0.7500000000000000  0.2937409704476490   F   F   F
  0.2500000000000000  0.6666666666666667  0.2534409710051188   F   F   F
  0.2500000000000000  0.6666666666666667  0.3340409698901790   F   F   F
  0.3477323101498797  0.7500000000000000  0.3968286785472537   F   F   F
  0.1522676898501203  0.7500000000000000  0.3968286785472537   F   F   F
  0.0000000000000000  0.6666666666666667  0.3565286791047362   F   F   F
  0.0000000000000000  0.6666666666666667  0.4371286779897840   F   F   F
  0.0977323101498797  0.7500000000000000  0.4999163866468711   F   F   F
  0.4022676898501203  0.7500000000000000  0.4999163866468711   F   F   F
  0.2500000000000000  0.6666666666666667  0.4596163872043412   F   F   F
  0.2500000000000000  0.6666666666666667  0.5402163860894011   F   F   F
  0.3499605291145020  0.7500000081313856  0.6034772240819479   T   T   T
  0.1500417087196456  0.7500000135352334  0.6034773962401084   T   T   T
  0.0000006479079549  0.6666666628015021  0.5631820646404226   T   T   T
  0.0000007263748976  0.6666666872489395  0.6439184740824525   T   T   T
  0.0936352348644687  0.7499999672415352  0.7113467787171101   T   T   T
  0.4063657135038983  0.7499999726278894  0.7113468490114315   T   T   T
  0.2500005756684493  0.9999999933843973  0.6658253350306893   T   T   T
  0.2500002357844248  0.6666667230828643  0.7465590289948811   T   T   T
  0.0977323101498797  0.9166666666666666  0.2937409704476490   F   F   F
  0.4022676898501203  0.9166666666666666  0.2937409704476490   F   F   F
  0.2500000000000000  0.8333333333333334  0.2534409710051188   F   F   F
  0.2500000000000000  0.8333333333333334  0.3340409698901790   F   F   F
  0.3477323101498797  0.9166666666666666  0.3968286785472537   F   F   F
  0.1522676898501203  0.9166666666666666  0.3968286785472537   F   F   F
  0.0000000000000000  0.8333333333333334  0.3565286791047362   F   F   F
  0.0000000000000000  0.8333333333333334  0.4371286779897840   F   F   F
  0.0977323101498797  0.9166666666666666  0.4999163866468711   F   F   F
  0.4022676898501203  0.9166666666666666  0.4999163866468711   F   F   F
  0.2500000000000000  0.8333333333333334  0.4596163872043412   F   F   F
  0.2500000000000000  0.8333333333333334  0.5402163860894011   F   F   F
  0.3499605231504143  0.9166666417982984  0.6034772295433547   T   T   T
  0.1500417129587476  0.9166666508842951  0.6034774024401105   T   T   T
  0.0000006594552799  0.8333333458318859  0.5631820518414188   T   T   T
  0.0000007413255520  0.8333333088822754  0.6439184439851083   T   T   T
  0.0936352400005605  0.9166666972658217  0.7113467414328105   T   T   T
  0.4063656645372458  0.9166667099689741  0.7113468071480397   T   T   T
  0.2500005815060203  0.8333333028467199  0.6658252918301809   T   T   T
  0.2500002067803934  0.8333332779870994  0.7465589428978480   T   T   T
  0.5977323101498797  0.0833333333333333  0.2937409704476490   F   F   F
  0.9022676898501204  0.0833333333333333  0.2937409704476490   F   F   F
  0.7500000000000001  0.0000000000000000  0.2534409710051188   F   F   F
  0.7500000000000001  0.0000000000000000  0.3340409698901790   F   F   F
  0.8477323101498797  0.0833333333333333  0.3968286785472537   F   F   F
  0.6522676898501203  0.0833333333333333  0.3968286785472537   F   F   F
  0.5000000000000000  0.0000000000000000  0.3565286791047362   F   F   F
  0.5000000000000000  0.0000000000000000  0.4371286779897840   F   F   F
  0.5977323101498797  0.0833333333333333  0.4999163866468711   F   F   F
  0.9022676898501204  0.0833333333333333  0.4999163866468711   F   F   F
  0.7500000000000001  0.0000000000000000  0.4596163872043412   F   F   F
  0.7500000000000001  0.0000000000000000  0.5402163860894011   F   F   F
  0.8499605291145020  0.0833333414647188  0.6034772240819479   T   T   T
  0.6500417087196456  0.0833333468685667  0.6034773962401084   T   T   T
  0.5000006479079548  0.9999999961348354  0.5631820646404226   T   T   T
  0.5000007263748976  0.0000000205822729  0.6439184740824525   T   T   T
  0.5936352348644688  0.0833333005748684  0.7113467787171101   T   T   T
  0.9063657135038983  0.0833333059612228  0.7113468490114315   T   T   T
  0.7500005756684494  0.3333333267177306  0.6658253350306893   T   T   T
  0.7500002357844248  0.0000000564161976  0.7465590289948811   T   T   T
  0.5977323101498797  0.2500000000000000  0.2937409704476490   F   F   F
  0.9022676898501204  0.2500000000000000  0.2937409704476490   F   F   F
  0.7500000000000001  0.1666666666666667  0.2534409710051188   F   F   F
  0.7500000000000001  0.1666666666666667  0.3340409698901790   F   F   F
  0.8477323101498797  0.2500000000000000  0.3968286785472537   F   F   F
  0.6522676898501203  0.2500000000000000  0.3968286785472537   F   F   F
  0.5000000000000000  0.1666666666666667  0.3565286791047362   F   F   F
  0.5000000000000000  0.1666666666666667  0.4371286779897840   F   F   F
  0.5977323101498797  0.2500000000000000  0.4999163866468711   F   F   F
  0.9022676898501204  0.2500000000000000  0.4999163866468711   F   F   F
  0.7500000000000001  0.1666666666666667  0.4596163872043412   F   F   F
  0.7500000000000001  0.1666666666666667  0.5402163860894011   F   F   F
  0.8499605231504144  0.2499999751316317  0.6034772295433547   T   T   T
  0.6500417129587476  0.2499999842176285  0.6034774024401105   T   T   T
  0.5000006594552799  0.1666666791652192  0.5631820518414188   T   T   T
  0.5000007413255521  0.1666666422156088  0.6439184439851083   T   T   T
  0.5936352400005606  0.2500000305991551  0.7113467414328105   T   T   T
  0.9063656645372458  0.2500000433023074  0.7113468071480397   T   T   T
  0.7500005815060203  0.1666666361800532  0.6658252918301809   T   T   T
  0.7500002067803934  0.1666666113204327  0.7465589428978480   T   T   T
  0.5977323101498797  0.4166666666666667  0.2937409704476490   F   F   F
  0.9022676898501204  0.4166666666666667  0.2937409704476490   F   F   F
  0.7500000000000001  0.3333333333333334  0.2534409710051188   F   F   F
  0.7500000000000001  0.3333333333333334  0.3340409698901790   F   F   F
  0.8477323101498797  0.4166666666666667  0.3968286785472537   F   F   F
  0.6522676898501203  0.4166666666666667  0.3968286785472537   F   F   F
  0.5000000000000000  0.3333333333333334  0.3565286791047362   F   F   F
  0.5000000000000000  0.3333333333333334  0.4371286779897840   F   F   F
  0.5977323101498797  0.4166666666666667  0.4999163866468711   F   F   F
  0.9022676898501204  0.4166666666666667  0.4999163866468711   F   F   F
  0.7500000000000001  0.3333333333333334  0.4596163872043412   F   F   F
  0.7500000000000001  0.3333333333333334  0.5402163860894011   F   F   F
  0.8499605291145020  0.4166666747980521  0.6034772240819479   T   T   T
  0.6500417087196456  0.4166666802019000  0.6034773962401084   T   T   T
  0.5000006479079548  0.3333333294681687  0.5631820646404226   T   T   T
  0.5000007263748976  0.3333333539156063  0.6439184740824525   T   T   T
  0.5936352348644688  0.4166666339082017  0.7113467787171101   T   T   T
  0.9063657135038983  0.4166666392945561  0.7113468490114315   T   T   T
  0.7500005756684494  0.6666666600510640  0.6658253350306893   T   T   T
  0.7500002357844248  0.3333333897495310  0.7465590289948811   T   T   T
  0.5977323101498797  0.5833333333333334  0.2937409704476490   F   F   F
  0.9022676898501204  0.5833333333333334  0.2937409704476490   F   F   F
  0.7500000000000001  0.5000000000000000  0.2534409710051188   F   F   F
  0.7500000000000001  0.5000000000000000  0.3340409698901790   F   F   F
  0.8477323101498797  0.5833333333333334  0.3968286785472537   F   F   F
  0.6522676898501203  0.5833333333333334  0.3968286785472537   F   F   F
  0.5000000000000000  0.5000000000000000  0.3565286791047362   F   F   F
  0.5000000000000000  0.5000000000000000  0.4371286779897840   F   F   F
  0.5977323101498797  0.5833333333333334  0.4999163866468711   F   F   F
  0.9022676898501204  0.5833333333333334  0.4999163866468711   F   F   F
  0.7500000000000001  0.5000000000000000  0.4596163872043412   F   F   F
  0.7500000000000001  0.5000000000000000  0.5402163860894011   F   F   F
  0.8499605231504144  0.5833333084649650  0.6034772295433547   T   T   T
  0.6500417129587476  0.5833333175509620  0.6034774024401105   T   T   T
  0.5000006594552799  0.5000000124985525  0.5631820518414188   T   T   T
  0.5000007413255521  0.4999999755489422  0.6439184439851083   T   T   T
  0.5936352400005606  0.5833333639324885  0.7113467414328105   T   T   T
  0.9063656645372458  0.5833333766356407  0.7113468071480397   T   T   T
  0.7500005815060203  0.4999999695133865  0.6658252918301809   T   T   T
  0.7500002067803934  0.4999999446537660  0.7465589428978480   T   T   T
  0.5977323101498797  0.7500000000000000  0.2937409704476490   F   F   F
  0.9022676898501204  0.7500000000000000  0.2937409704476490   F   F   F
  0.7500000000000001  0.6666666666666667  0.2534409710051188   F   F   F
  0.7500000000000001  0.6666666666666667  0.3340409698901790   F   F   F
  0.8477323101498797  0.7500000000000000  0.3968286785472537   F   F   F
  0.6522676898501203  0.7500000000000000  0.3968286785472537   F   F   F
  0.5000000000000000  0.6666666666666667  0.3565286791047362   F   F   F
  0.5000000000000000  0.6666666666666667  0.4371286779897840   F   F   F
  0.5977323101498797  0.7500000000000000  0.4999163866468711   F   F   F
  0.9022676898501204  0.7500000000000000  0.4999163866468711   F   F   F
  0.7500000000000001  0.6666666666666667  0.4596163872043412   F   F   F
  0.7500000000000001  0.6666666666666667  0.5402163860894011   F   F   F
  0.8499605291145020  0.7500000081313856  0.6034772240819479   T   T   T
  0.6500417087196456  0.7500000135352334  0.6034773962401084   T   T   T
  0.5000006479079548  0.6666666628015021  0.5631820646404226   T   T   T
  0.5000007263748976  0.6666666872489395  0.6439184740824525   T   T   T
  0.5936352348644688  0.7499999672415352  0.7113467787171101   T   T   T
  0.9063657135038983  0.7499999726278894  0.7113468490114315   T   T   T
  0.7500005756684494  0.9999999933843973  0.6658253350306893   T   T   T
  0.7500002357844248  0.6666667230828643  0.7465590289948811   T   T   T
  0.5977323101498797  0.9166666666666666  0.2937409704476490   F   F   F
  0.9022676898501204  0.9166666666666666  0.2937409704476490   F   F   F
  0.7500000000000001  0.8333333333333334  0.2534409710051188   F   F   F
  0.7500000000000001  0.8333333333333334  0.3340409698901790   F   F   F
  0.8477323101498797  0.9166666666666666  0.3968286785472537   F   F   F
  0.6522676898501203  0.9166666666666666  0.3968286785472537   F   F   F
  0.5000000000000000  0.8333333333333334  0.3565286791047362   F   F   F
  0.5000000000000000  0.8333333333333334  0.4371286779897840   F   F   F
  0.5977323101498797  0.9166666666666666  0.4999163866468711   F   F   F
  0.9022676898501204  0.9166666666666666  0.4999163866468711   F   F   F
  0.7500000000000001  0.8333333333333334  0.4596163872043412   F   F   F
  0.7500000000000001  0.8333333333333334  0.5402163860894011   F   F   F
  0.8499605231504144  0.9166666417982984  0.6034772295433547   T   T   T
  0.6500417129587476  0.9166666508842951  0.6034774024401105   T   T   T
  0.5000006594552799  0.8333333458318859  0.5631820518414188   T   T   T
  0.5000007413255521  0.8333333088822754  0.6439184439851083   T   T   T
  0.5936352400005606  0.9166666972658217  0.7113467414328105   T   T   T
  0.9063656645372458  0.9166667099689741  0.7113468071480397   T   T   T
  0.7500005815060203  0.8333333028467199  0.6658252918301809   T   T   T
  0.7500002067803934  0.8333332779870994  0.7465589428978480   T   T   T
  0.2500000000000000  0.0833333333333333  0.2937409704476490   F   F   F
  0.0000000000000000  0.0000000000000000  0.2937409704476490   F   F   F
  0.0000000000000000  0.0833333333333333  0.3968286785472537   F   F   F
  0.2500000000000000  0.0000000000000000  0.3968286785472537   F   F   F
  0.2500000000000000  0.0833333333333333  0.4999163866468711   F   F   F
  0.0000000000000000  0.0000000000000000  0.4999163866468711   F   F   F
  0.4999950501122327  0.0833333091148193  0.6008332595436496   T   T   T
  0.2499962250722868  0.0000000164455263  0.6067583692878135   T   T   T
  0.2500006483489770  0.0833336559245649  0.7126953311077171   T   T   T
  0.0000005080000396  0.9999999933563272  0.7013463756506324   T   T   T
  0.2500000000000000  0.2500000000000000  0.2937409704476490   F   F   F
  0.0000000000000000  0.1666666666666667  0.2937409704476490   F   F   F
  0.0000000000000000  0.2500000000000000  0.3968286785472537   F   F   F
  0.2500000000000000  0.1666666666666667  0.3968286785472537   F   F   F
  0.2500000000000000  0.2500000000000000  0.4999163866468711   F   F   F
  0.0000000000000000  0.1666666666666667  0.4999163866468711   F   F   F
  0.4999950350690420  0.2500000307364676  0.6008332731424029   T   T   T
  0.2499962358398076  0.1666666938371277  0.6067584293955114   T   T   T
  0.2500006599529661  0.2499996986722891  0.7126954793423896   T   T   T
  0.0000004636441615  0.1666666943540364  0.7013463651252432   T   T   T
  0.2500000000000000  0.4166666666666667  0.2937409704476490   F   F   F
  0.0000000000000000  0.3333333333333334  0.2937409704476490   F   F   F
  0.0000000000000000  0.4166666666666667  0.3968286785472537   F   F   F
  0.2500000000000000  0.3333333333333334  0.3968286785472537   F   F   F
  0.2500000000000000  0.4166666666666667  0.4999163866468711   F   F   F
  0.0000000000000000  0.3333333333333334  0.4999163866468711   F   F   F
  0.4999950501122327  0.4166666424481526  0.6008332595436496   T   T   T
  0.2499962250722868  0.3333333497788596  0.6067583692878135   T   T   T
  0.2500006483489770  0.4166669892578983  0.7126953311077171   T   T   T
  0.0000005080000396  0.3333333266896605  0.7013463756506324   T   T   T
  0.2500000000000000  0.5833333333333334  0.2937409704476490   F   F   F
  0.0000000000000000  0.5000000000000000  0.2937409704476490   F   F   F
  0.0000000000000000  0.5833333333333334  0.3968286785472537   F   F   F
  0.2500000000000000  0.5000000000000000  0.3968286785472537   F   F   F
  0.2500000000000000  0.5833333333333334  0.4999163866468711   F   F   F
  0.0000000000000000  0.5000000000000000  0.4999163866468711   F   F   F
  0.4999950350690420  0.5833333640698011  0.6008332731424029   T   T   T
  0.2499962358398076  0.5000000271704610  0.6067584293955114   T   T   T
  0.2500006599529661  0.5833330320056224  0.7126954793423896   T   T   T
  0.0000004636441615  0.5000000276873697  0.7013463651252432   T   T   T
  0.2500000000000000  0.7500000000000000  0.2937409704476490   F   F   F
  0.0000000000000000  0.6666666666666667  0.2937409704476490   F   F   F
  0.0000000000000000  0.7500000000000000  0.3968286785472537   F   F   F
  0.2500000000000000  0.6666666666666667  0.3968286785472537   F   F   F
  0.2500000000000000  0.7500000000000000  0.4999163866468711   F   F   F
  0.0000000000000000  0.6666666666666667  0.4999163866468711   F   F   F
  0.4999950501122327  0.7499999757814859  0.6008332595436496   T   T   T
  0.2499962250722868  0.6666666831121930  0.6067583692878135   T   T   T
  0.2500006483489770  0.7500003225912316  0.7126953311077171   T   T   T
  0.0000005080000396  0.6666666600229938  0.7013463756506324   T   T   T
  0.2500000000000000  0.9166666666666666  0.2937409704476490   F   F   F
  0.0000000000000000  0.8333333333333334  0.2937409704476490   F   F   F
  0.0000000000000000  0.9166666666666666  0.3968286785472537   F   F   F
  0.2500000000000000  0.8333333333333334  0.3968286785472537   F   F   F
  0.2500000000000000  0.9166666666666666  0.4999163866468711   F   F   F
  0.0000000000000000  0.8333333333333334  0.4999163866468711   F   F   F
  0.4999950350690420  0.9166666974031344  0.6008332731424029   T   T   T
  0.2499962358398076  0.8333333605037944  0.6067584293955114   T   T   T
  0.2500006599529661  0.9166663653389558  0.7126954793423896   T   T   T
  0.0000004636441615  0.8333333610207031  0.7013463651252432   T   T   T
  0.7500000000000001  0.0833333333333333  0.2937409704476490   F   F   F
  0.5000000000000000  0.0000000000000000  0.2937409704476490   F   F   F
  0.5000000000000000  0.0833333333333333  0.3968286785472537   F   F   F
  0.7500000000000001  0.0000000000000000  0.3968286785472537   F   F   F
  0.7500000000000001  0.0833333333333333  0.4999163866468711   F   F   F
  0.5000000000000000  0.0000000000000000  0.4999163866468711   F   F   F
  0.9999950501122327  0.0833333091148193  0.6008332595436496   T   T   T
  0.7499962250722868  0.0000000164455263  0.6067583692878135   T   T   T
  0.7500006483489771  0.0833336559245649  0.7126953311077171   T   T   T
  0.5000005080000396  0.9999999933563272  0.7013463756506324   T   T   T
  0.7500000000000001  0.2500000000000000  0.2937409704476490   F   F   F
  0.5000000000000000  0.1666666666666667  0.2937409704476490   F   F   F
  0.5000000000000000  0.2500000000000000  0.3968286785472537   F   F   F
  0.7500000000000001  0.1666666666666667  0.3968286785472537   F   F   F
  0.7500000000000001  0.2500000000000000  0.4999163866468711   F   F   F
  0.5000000000000000  0.1666666666666667  0.4999163866468711   F   F   F
  0.9999950350690421  0.2500000307364676  0.6008332731424029   T   T   T
  0.7499962358398076  0.1666666938371277  0.6067584293955114   T   T   T
  0.7500006599529661  0.2499996986722891  0.7126954793423896   T   T   T
  0.5000004636441615  0.1666666943540364  0.7013463651252432   T   T   T
  0.7500000000000001  0.4166666666666667  0.2937409704476490   F   F   F
  0.5000000000000000  0.3333333333333334  0.2937409704476490   F   F   F
  0.5000000000000000  0.4166666666666667  0.3968286785472537   F   F   F
  0.7500000000000001  0.3333333333333334  0.3968286785472537   F   F   F
  0.7500000000000001  0.4166666666666667  0.4999163866468711   F   F   F
  0.5000000000000000  0.3333333333333334  0.4999163866468711   F   F   F
  0.9999950501122327  0.4166666424481526  0.6008332595436496   T   T   T
  0.7499962250722868  0.3333333497788596  0.6067583692878135   T   T   T
  0.7500006483489771  0.4166669892578983  0.7126953311077171   T   T   T
  0.5000005080000396  0.3333333266896605  0.7013463756506324   T   T   T
  0.7500000000000001  0.5833333333333334  0.2937409704476490   F   F   F
  0.5000000000000000  0.5000000000000000  0.2937409704476490   F   F   F
  0.5000000000000000  0.5833333333333334  0.3968286785472537   F   F   F
  0.7500000000000001  0.5000000000000000  0.3968286785472537   F   F   F
  0.7500000000000001  0.5833333333333334  0.4999163866468711   F   F   F
  0.5000000000000000  0.5000000000000000  0.4999163866468711   F   F   F
  0.9999950350690421  0.5833333640698011  0.6008332731424029   T   T   T
  0.7499962358398076  0.5000000271704610  0.6067584293955114   T   T   T
  0.7500006599529661  0.5833330320056224  0.7126954793423896   T   T   T
  0.5000004636441615  0.5000000276873697  0.7013463651252432   T   T   T
  0.7500000000000001  0.7500000000000000  0.2937409704476490   F   F   F
  0.5000000000000000  0.6666666666666667  0.2937409704476490   F   F   F
  0.5000000000000000  0.7500000000000000  0.3968286785472537   F   F   F
  0.7500000000000001  0.6666666666666667  0.3968286785472537   F   F   F
  0.7500000000000001  0.7500000000000000  0.4999163866468711   F   F   F
  0.5000000000000000  0.6666666666666667  0.4999163866468711   F   F   F
  0.9999950501122327  0.7499999757814859  0.6008332595436496   T   T   T
  0.7499962250722868  0.6666666831121930  0.6067583692878135   T   T   T
  0.7500006483489771  0.7500003225912316  0.7126953311077171   T   T   T
  0.5000005080000396  0.6666666600229938  0.7013463756506324   T   T   T
  0.7500000000000001  0.9166666666666666  0.2937409704476490   F   F   F
  0.5000000000000000  0.8333333333333334  0.2937409704476490   F   F   F
  0.5000000000000000  0.9166666666666666  0.3968286785472537   F   F   F
  0.7500000000000001  0.8333333333333334  0.3968286785472537   F   F   F
  0.7500000000000001  0.9166666666666666  0.4999163866468711   F   F   F
  0.5000000000000000  0.8333333333333334  0.4999163866468711   F   F   F
  0.9999950350690421  0.9166666974031344  0.6008332731424029   T   T   T
  0.7499962358398076  0.8333333605037944  0.6067584293955114   T   T   T
  0.7500006599529661  0.9166663653389558  0.7126954793423896   T   T   T
  0.5000004636441615  0.8333333610207031  0.7013463651252432   T   T   T
