Ti  O                                   
   1.00000000000000     
    12.8783825809832297    0.0000000000000000    0.0000000000000000
     0.0000000000000000   11.6868443333809928    0.0000000000000000
     0.0000000000000000    0.0000000000000000   30.4044782389966777
   Ti   O 
    80   159
Selective dynamics
Direct
  0.5000000000000000  0.1250000000000000  0.2882156950737382   F   F   F
  0.7500000000000000  0.0000000000000000  0.2882156950737382   F   F   F
  0.7500000000000000  0.1250000000000000  0.3941078475368656   F   F   F
  0.5000000000000000  0.0000000000000000  0.3941078475368656   F   F   F
  0.5000000000000000  0.1250000000000000  0.5000000000000000   F   F   F
  0.7500000000000000  0.0000000000000000  0.5000000000000000   F   F   F
  0.7510930996559537  0.1249248169926176  0.6040238061208356   T   T   T
  0.4999972353480899  0.9999980311814483  0.6114635480275581   T   T   T
  0.5000046524749706  0.1212136786864590  0.7217625739379869   T   T   T
  0.2499745921337038  0.9999968371867212  0.7075281983528967   T   T   T
  0.5000000000000000  0.3750000000000000  0.2882156950737382   F   F   F
  0.7500000000000000  0.2500000000000000  0.2882156950737382   F   F   F
  0.7500000000000000  0.3750000000000000  0.3941078475368656   F   F   F
  0.5000000000000000  0.2500000000000000  0.3941078475368656   F   F   F
  0.5000000000000000  0.3750000000000000  0.5000000000000000   F   F   F
  0.7500000000000000  0.2500000000000000  0.5000000000000000   F   F   F
  0.7512497119485033  0.3750177006999991  0.6041076806176235   T   T   T
  0.5000060343618458  0.2479812431534114  0.6038265256874169   T   T   T
  0.4999982971713521  0.3562776079080763  0.7071579047755776   T   T   T
  0.2508629219935230  0.2498248879373790  0.7077030613413697   T   T   T
  0.5000000000000000  0.6250000000000000  0.2882156950737382   F   F   F
  0.7500000000000000  0.5000000000000000  0.2882156950737382   F   F   F
  0.7500000000000000  0.6250000000000000  0.3941078475368656   F   F   F
  0.5000000000000000  0.5000000000000000  0.3941078475368656   F   F   F
  0.5000000000000000  0.6250000000000000  0.5000000000000000   F   F   F
  0.7500000000000000  0.5000000000000000  0.5000000000000000   F   F   F
  0.7512572917415596  0.6249682965867649  0.6041140659873463   T   T   T
  0.4999986065045405  0.5000031408792509  0.6073008578843115   T   T   T
  0.4999996225663352  0.6437219800582454  0.7071590329181348   T   T   T
  0.2512393879319532  0.4999986525331082  0.7074969609426915   T   T   T
  0.5000000000000000  0.8750000000000000  0.2882156950737382   F   F   F
  0.7500000000000000  0.7500000000000000  0.2882156950737382   F   F   F
  0.7500000000000000  0.8750000000000000  0.3941078475368656   F   F   F
  0.5000000000000000  0.7500000000000000  0.3941078475368656   F   F   F
  0.5000000000000000  0.8750000000000000  0.5000000000000000   F   F   F
  0.7500000000000000  0.7500000000000000  0.5000000000000000   F   F   F
  0.7511012129545875  0.8750729424803865  0.6040201800838574   T   T   T
  0.5000103461360794  0.7520184829739236  0.6038273132970602   T   T   T
  0.5000081326706791  0.8787844823595066  0.7217625864827113   T   T   T
  0.2508925257382941  0.7501682489431758  0.7076974030022427   T   T   T
  0.0000000000000000  0.1250000000000000  0.2882156950737382   F   F   F
  0.2500000000000000  0.0000000000000000  0.2882156950737382   F   F   F
  0.2500000000000000  0.1250000000000000  0.3941078475368656   F   F   F
  0.0000000000000000  0.0000000000000000  0.3941078475368656   F   F   F
  0.0000000000000000  0.1250000000000000  0.5000000000000000   F   F   F
  0.2500000000000000  0.0000000000000000  0.5000000000000000   F   F   F
  0.2489082198503567  0.1249302939914259  0.6040203454745878   T   T   T
  0.0000053708122962  0.0000014391808350  0.6088259936923066   T   T   T
  0.0000043496559528  0.1250236317445257  0.7177016960826705   T   T   T
  0.7500348757019353  0.9999960248890858  0.7075299757360369   T   T   T
  0.0000000000000000  0.3750000000000000  0.2882156950737382   F   F   F
  0.2500000000000000  0.2500000000000000  0.2882156950737382   F   F   F
  0.2500000000000000  0.3750000000000000  0.3941078475368656   F   F   F
  0.0000000000000000  0.2500000000000000  0.3941078475368656   F   F   F
  0.0000000000000000  0.3750000000000000  0.5000000000000000   F   F   F
  0.2500000000000000  0.2500000000000000  0.5000000000000000   F   F   F
  0.2487474528591918  0.3750314643762849  0.6041155693351854   T   T   T
  0.9999990908516097  0.2499692146430164  0.6089011221364942   T   T   T
  0.9999979677889428  0.3747956840535096  0.7180994024773781   T   T   T
  0.7491191174959866  0.2498290013457307  0.7076990281015938   T   T   T
  0.0000000000000000  0.6250000000000000  0.2882156950737382   F   F   F
  0.2500000000000000  0.5000000000000000  0.2882156950737382   F   F   F
  0.2500000000000000  0.6250000000000000  0.3941078475368656   F   F   F
  0.0000000000000000  0.5000000000000000  0.3941078475368656   F   F   F
  0.0000000000000000  0.6250000000000000  0.5000000000000000   F   F   F
  0.2500000000000000  0.5000000000000000  0.5000000000000000   F   F   F
  0.2487464818226854  0.6249673431238705  0.6041138643747672   T   T   T
  0.9999934092760370  0.4999988218132501  0.6090691338081911   T   T   T
  0.0000043792538378  0.6252028144882615  0.7181029989417596   T   T   T
  0.7487651448977104  0.5000014472254293  0.7074945267853039   T   T   T
  0.0000000000000000  0.8750000000000000  0.2882156950737382   F   F   F
  0.2500000000000000  0.7500000000000000  0.2882156950737382   F   F   F
  0.2500000000000000  0.8750000000000000  0.3941078475368656   F   F   F
  0.0000000000000000  0.7500000000000000  0.3941078475368656   F   F   F
  0.0000000000000000  0.8750000000000000  0.5000000000000000   F   F   F
  0.2500000000000000  0.7500000000000000  0.5000000000000000   F   F   F
  0.2489082988551345  0.8750715984606998  0.6040193489927006   T   T   T
  0.0000014818887308  0.7500308880238435  0.6089017057944019   T   T   T
  0.0000088026837659  0.8749741486126013  0.7177009762152977   T   T   T
  0.7491167943380219  0.7501683385986837  0.7076984398946422   T   T   T
  0.3480750355150803  0.1250000000000000  0.2882156950737382   F   F   F
  0.6519249644849197  0.1250000000000000  0.2882156950737382   F   F   F
  0.5000000000000000  0.0000000000000000  0.2466741886193731   F   F   F
  0.5000000000000000  0.0000000000000000  0.3297572015280963   F   F   F
  0.5980750355150803  0.1250000000000000  0.3941078475368656   F   F   F
  0.4019249644849197  0.1250000000000000  0.3941078475368656   F   F   F
  0.7500000000000000  0.0000000000000000  0.3525663410825075   F   F   F
  0.7500000000000000  0.0000000000000000  0.4356493539912307   F   F   F
  0.3480750355150803  0.1250000000000000  0.5000000000000000   F   F   F
  0.6519249644849197  0.1250000000000000  0.5000000000000000   F   F   F
  0.5000000000000000  0.0000000000000000  0.4584584935456419   F   F   F
  0.5000000000000000  0.0000000000000000  0.5415415064543581   F   F   F
  0.5991061011456793  0.1249437666075721  0.6068163938780415   T   T   T
  0.4008960237465402  0.1249450320287622  0.6068161568716022   T   T   T
  0.7489505157677669  0.9999998982672409  0.5648690843167685   T   T   T
  0.2516887329261763  0.9999977065169148  0.6487543338551163   T   T   T
  0.3449283437823212  0.1245228609171392  0.7191757205798410   T   T   T
  0.6550831308921161  0.1245155669758162  0.7191752310050532   T   T   T
  0.4999994893008974  0.0000020776714820  0.6737850569920099   T   T   T
  0.5000010263755215  0.9999958456033298  0.7583431333298520   T   T   T
  0.3480750355150803  0.3750000000000000  0.2882156950737382   F   F   F
  0.6519249644849197  0.3750000000000000  0.2882156950737382   F   F   F
  0.5000000000000000  0.2500000000000000  0.2466741886193731   F   F   F
  0.5000000000000000  0.2500000000000000  0.3297572015280963   F   F   F
  0.5980750355150803  0.3750000000000000  0.3941078475368656   F   F   F
  0.4019249644849197  0.3750000000000000  0.3941078475368656   F   F   F
  0.7500000000000000  0.2500000000000000  0.3525663410825075   F   F   F
  0.7500000000000000  0.2500000000000000  0.4356493539912307   F   F   F
  0.3480750355150803  0.3750000000000000  0.5000000000000000   F   F   F
  0.6519249644849197  0.3750000000000000  0.5000000000000000   F   F   F
  0.5000000000000000  0.2500000000000000  0.4584584935456419   F   F   F
  0.5000000000000000  0.2500000000000000  0.5415415064543581   F   F   F
  0.5986039070577931  0.3750413762022475  0.6078338173268136   T   T   T
  0.4013946700102622  0.3750368697058732  0.6078354241090551   T   T   T
  0.7482543016871475  0.2502146816689077  0.5648861380814765   T   T   T
  0.2514790468905090  0.2500427773132614  0.6489176280024651   T   T   T
  0.3489653459998436  0.3768158018863730  0.7178217105738156   T   T   T
  0.6510318003485196  0.3768145033618282  0.7178212902598489   T   T   T
  0.5000003785706539  0.2403211767263471  0.6701599467896884   T   T   T
  0.5000017262377838  0.2555302164176254  0.7523804439316208   T   T   T
  0.3480750355150803  0.6250000000000000  0.2882156950737382   F   F   F
  0.6519249644849197  0.6250000000000000  0.2882156950737382   F   F   F
  0.5000000000000000  0.5000000000000000  0.2466741886193731   F   F   F
  0.5000000000000000  0.5000000000000000  0.3297572015280963   F   F   F
  0.5980750355150803  0.6250000000000000  0.3941078475368656   F   F   F
  0.4019249644849197  0.6250000000000000  0.3941078475368656   F   F   F
  0.7500000000000000  0.5000000000000000  0.3525663410825075   F   F   F
  0.7500000000000000  0.5000000000000000  0.4356493539912307   F   F   F
  0.3480750355150803  0.6250000000000000  0.5000000000000000   F   F   F
  0.6519249644849197  0.6250000000000000  0.5000000000000000   F   F   F
  0.5000000000000000  0.5000000000000000  0.4584584935456419   F   F   F
  0.5000000000000000  0.5000000000000000  0.5415415064543581   F   F   F
  0.5986044224086413  0.6249563112218368  0.6078345341704505   T   T   T
  0.4013956585025085  0.6249618334130673  0.6078348545901022   T   T   T
  0.7478370006899624  0.4999988304081384  0.5648946308375997   T   T   T
  0.2502148777343436  0.4999980108030968  0.6487775563332505   T   T   T
  0.3489695215126787  0.6231816042133289  0.7178216661301846   T   T   T
  0.6510310167462734  0.6231870703643025  0.7178211572104729   T   T   T
  0.4999928733699832  0.5000026458269318  0.6751520864909892   T   T   T
  0.3480750355150803  0.8750000000000000  0.2882156950737382   F   F   F
  0.6519249644849197  0.8750000000000000  0.2882156950737382   F   F   F
  0.5000000000000000  0.7500000000000000  0.2466741886193731   F   F   F
  0.5000000000000000  0.7500000000000000  0.3297572015280963   F   F   F
  0.5980750355150803  0.8750000000000000  0.3941078475368656   F   F   F
  0.4019249644849197  0.8750000000000000  0.3941078475368656   F   F   F
  0.7500000000000000  0.7500000000000000  0.3525663410825075   F   F   F
  0.7500000000000000  0.7500000000000000  0.4356493539912307   F   F   F
  0.3480750355150803  0.8750000000000000  0.5000000000000000   F   F   F
  0.6519249644849197  0.8750000000000000  0.5000000000000000   F   F   F
  0.5000000000000000  0.7500000000000000  0.4584584935456419   F   F   F
  0.5000000000000000  0.7500000000000000  0.5415415064543581   F   F   F
  0.5991061165794775  0.8750544795834756  0.6068157521959918   T   T   T
  0.4008965929564212  0.8750504361538205  0.6068156184864790   T   T   T
  0.7482542942514812  0.7497764508109910  0.5648903236130920   T   T   T
  0.2514842553313059  0.7499549758541519  0.6489130583511056   T   T   T
  0.3449323433726050  0.8754802798808967  0.7191749982887643   T   T   T
  0.6550852395508997  0.8754889043097478  0.7191766931043801   T   T   T
  0.5000011404879530  0.7596820534550801  0.6701599548411181   T   T   T
  0.5000019461778109  0.7444708989488120  0.7523805487117698   T   T   T
  0.8480750355150803  0.1250000000000000  0.2882156950737382   F   F   F
  0.1519249644849197  0.1250000000000000  0.2882156950737382   F   F   F
  0.0000000000000000  0.0000000000000000  0.2466741886193731   F   F   F
  0.0000000000000000  0.0000000000000000  0.3297572015280963   F   F   F
  0.0980750355150803  0.1250000000000000  0.3941078475368656   F   F   F
  0.9019249644849197  0.1250000000000000  0.3941078475368656   F   F   F
  0.2500000000000000  0.0000000000000000  0.3525663410825075   F   F   F
  0.2500000000000000  0.0000000000000000  0.4356493539912307   F   F   F
  0.8480750355150803  0.1250000000000000  0.5000000000000000   F   F   F
  0.1519249644849197  0.1250000000000000  0.5000000000000000   F   F   F
  0.0000000000000000  0.0000000000000000  0.4584584935456419   F   F   F
  0.0000000000000000  0.0000000000000000  0.5415415064543581   F   F   F
  0.1005780378093917  0.1250854035479065  0.6064818741449329   T   T   T
  0.8994223045219485  0.1250831525236791  0.6064822488601394   T   T   T
  0.2510485035843928  0.9999992428649804  0.5648658886983426   T   T   T
  0.7483190057639462  0.9999998332402313  0.6487558911462799   T   T   T
  0.8433737062185074  0.1259135098211459  0.7174288783190548   T   T   T
  0.1566362184911654  0.1258989901971432  0.7174266537636740   T   T   T
  0.9999998039183353  0.9999993712910538  0.6702202440696965   T   T   T
  0.9999993297013461  0.9999988171894216  0.7529451635206925   T   T   T
  0.8480750355150803  0.3750000000000000  0.2882156950737382   F   F   F
  0.1519249644849197  0.3750000000000000  0.2882156950737382   F   F   F
  0.0000000000000000  0.2500000000000000  0.2466741886193731   F   F   F
  0.0000000000000000  0.2500000000000000  0.3297572015280963   F   F   F
  0.0980750355150803  0.3750000000000000  0.3941078475368656   F   F   F
  0.9019249644849197  0.3750000000000000  0.3941078475368656   F   F   F
  0.2500000000000000  0.2500000000000000  0.3525663410825075   F   F   F
  0.2500000000000000  0.2500000000000000  0.4356493539912307   F   F   F
  0.8480750355150803  0.3750000000000000  0.5000000000000000   F   F   F
  0.1519249644849197  0.3750000000000000  0.5000000000000000   F   F   F
  0.0000000000000000  0.2500000000000000  0.4584584935456419   F   F   F
  0.0000000000000000  0.2500000000000000  0.5415415064543581   F   F   F
  0.1005937415471863  0.3750506100611659  0.6063693048999568   T   T   T
  0.8993993086402767  0.3750486139607787  0.6063681460390953   T   T   T
  0.2517448834292111  0.2502242518817539  0.5648859884490776   T   T   T
  0.7485174848759115  0.2500450783447121  0.6489161740719922   T   T   T
  0.8416488720040292  0.3749540458347838  0.7184373822276342   T   T   T
  0.1583469344816493  0.3749534351063346  0.7184362098440857   T   T   T
  0.9999994001855157  0.2507472996111986  0.6703072910059973   T   T   T
  0.0000010311337917  0.2499655379743402  0.7531780160071051   T   T   T
  0.8480750355150803  0.6250000000000000  0.2882156950737382   F   F   F
  0.1519249644849197  0.6250000000000000  0.2882156950737382   F   F   F
  0.0000000000000000  0.5000000000000000  0.2466741886193731   F   F   F
  0.0000000000000000  0.5000000000000000  0.3297572015280963   F   F   F
  0.0980750355150803  0.6250000000000000  0.3941078475368656   F   F   F
  0.9019249644849197  0.6250000000000000  0.3941078475368656   F   F   F
  0.2500000000000000  0.5000000000000000  0.3525663410825075   F   F   F
  0.2500000000000000  0.5000000000000000  0.4356493539912307   F   F   F
  0.8480750355150803  0.6250000000000000  0.5000000000000000   F   F   F
  0.1519249644849197  0.6250000000000000  0.5000000000000000   F   F   F
  0.0000000000000000  0.5000000000000000  0.4584584935456419   F   F   F
  0.0000000000000000  0.5000000000000000  0.5415415064543581   F   F   F
  0.1005932153346336  0.6249487060714713  0.6063693930889187   T   T   T
  0.8994014778526562  0.6249510720094236  0.6063695010115211   T   T   T
  0.2521614585947418  0.4999975215009229  0.5648929166091747   T   T   T
  0.7497817542174801  0.4999939838015450  0.6487765279586171   T   T   T
  0.8416493711337836  0.6250477361330695  0.7184354946175660   T   T   T
  0.1583520708553081  0.6250513257438755  0.7184337693990202   T   T   T
  0.9999987822774727  0.4999995875625416  0.6704204096586608   T   T   T
  0.9999999735345355  0.5000010864722597  0.7532237555776788   T   T   T
  0.8480750355150803  0.8750000000000000  0.2882156950737382   F   F   F
  0.1519249644849197  0.8750000000000000  0.2882156950737382   F   F   F
  0.0000000000000000  0.7500000000000000  0.2466741886193731   F   F   F
  0.0000000000000000  0.7500000000000000  0.3297572015280963   F   F   F
  0.0980750355150803  0.8750000000000000  0.3941078475368656   F   F   F
  0.9019249644849197  0.8750000000000000  0.3941078475368656   F   F   F
  0.2500000000000000  0.7500000000000000  0.3525663410825075   F   F   F
  0.2500000000000000  0.7500000000000000  0.4356493539912307   F   F   F
  0.8480750355150803  0.8750000000000000  0.5000000000000000   F   F   F
  0.1519249644849197  0.8750000000000000  0.5000000000000000   F   F   F
  0.0000000000000000  0.7500000000000000  0.4584584935456419   F   F   F
  0.0000000000000000  0.7500000000000000  0.5415415064543581   F   F   F
  0.1005779047178166  0.8749150045181366  0.6064816041102432   T   T   T
  0.8994245614092691  0.8749169745486896  0.6064820805866091   T   T   T
  0.2517435414539833  0.7497743099060301  0.5648863955153445   T   T   T
  0.7485165820777979  0.7499558544126472  0.6489148954255555   T   T   T
  0.8433731894695740  0.8740855511859777  0.7174274741402229   T   T   T
  0.1566470156620312  0.8740887595223299  0.7174261477816302   T   T   T
  0.0000008203967070  0.7492526835683222  0.6703067745312907   T   T   T
  0.0000009692244802  0.7500328153058149  0.7531768842448514   T   T   T
 
  0.00000000E+00  0.00000000E+00  0.00000000E+00
  0.00000000E+00  0.00000000E+00  0.00000000E+00
  0.00000000E+00  0.00000000E+00  0.00000000E+00
  0.00000000E+00  0.00000000E+00  0.00000000E+00
  0.00000000E+00  0.00000000E+00  0.00000000E+00
  0.00000000E+00  0.00000000E+00  0.00000000E+00
  0.00000000E+00  0.00000000E+00  0.00000000E+00
  0.00000000E+00  0.00000000E+00  0.00000000E+00
  0.00000000E+00  0.00000000E+00  0.00000000E+00
  0.00000000E+00  0.00000000E+00  0.00000000E+00
  0.00000000E+00  0.00000000E+00  0.00000000E+00
  0.00000000E+00  0.00000000E+00  0.00000000E+00
  0.00000000E+00  0.00000000E+00  0.00000000E+00
  0.00000000E+00  0.00000000E+00  0.00000000E+00
  0.00000000E+00  0.00000000E+00  0.00000000E+00
  0.00000000E+00  0.00000000E+00  0.00000000E+00
  0.00000000E+00  0.00000000E+00  0.00000000E+00
  0.00000000E+00  0.00000000E+00  0.00000000E+00
  0.00000000E+00  0.00000000E+00  0.00000000E+00
  0.00000000E+00  0.00000000E+00  0.00000000E+00
  0.00000000E+00  0.00000000E+00  0.00000000E+00
  0.00000000E+00  0.00000000E+00  0.00000000E+00
  0.00000000E+00  0.00000000E+00  0.00000000E+00
  0.00000000E+00  0.00000000E+00  0.00000000E+00
  0.00000000E+00  0.00000000E+00  0.00000000E+00
  0.00000000E+00  0.00000000E+00  0.00000000E+00
  0.00000000E+00  0.00000000E+00  0.00000000E+00
  0.00000000E+00  0.00000000E+00  0.00000000E+00
  0.00000000E+00  0.00000000E+00  0.00000000E+00
  0.00000000E+00  0.00000000E+00  0.00000000E+00
  0.00000000E+00  0.00000000E+00  0.00000000E+00
  0.00000000E+00  0.00000000E+00  0.00000000E+00
  0.00000000E+00  0.00000000E+00  0.00000000E+00
  0.00000000E+00  0.00000000E+00  0.00000000E+00
  0.00000000E+00  0.00000000E+00  0.00000000E+00
  0.00000000E+00  0.00000000E+00  0.00000000E+00
  0.00000000E+00  0.00000000E+00  0.00000000E+00
  0.00000000E+00  0.00000000E+00  0.00000000E+00
  0.00000000E+00  0.00000000E+00  0.00000000E+00
  0.00000000E+00  0.00000000E+00  0.00000000E+00
  0.00000000E+00  0.00000000E+00  0.00000000E+00
  0.00000000E+00  0.00000000E+00  0.00000000E+00
  0.00000000E+00  0.00000000E+00  0.00000000E+00
  0.00000000E+00  0.00000000E+00  0.00000000E+00
  0.00000000E+00  0.00000000E+00  0.00000000E+00
  0.00000000E+00  0.00000000E+00  0.00000000E+00
  0.00000000E+00  0.00000000E+00  0.00000000E+00
  0.00000000E+00  0.00000000E+00  0.00000000E+00
  0.00000000E+00  0.00000000E+00  0.00000000E+00
  0.00000000E+00  0.00000000E+00  0.00000000E+00
  0.00000000E+00  0.00000000E+00  0.00000000E+00
  0.00000000E+00  0.00000000E+00  0.00000000E+00
  0.00000000E+00  0.00000000E+00  0.00000000E+00
  0.00000000E+00  0.00000000E+00  0.00000000E+00
  0.00000000E+00  0.00000000E+00  0.00000000E+00
  0.00000000E+00  0.00000000E+00  0.00000000E+00
  0.00000000E+00  0.00000000E+00  0.00000000E+00
  0.00000000E+00  0.00000000E+00  0.00000000E+00
  0.00000000E+00  0.00000000E+00  0.00000000E+00
  0.00000000E+00  0.00000000E+00  0.00000000E+00
  0.00000000E+00  0.00000000E+00  0.00000000E+00
  0.00000000E+00  0.00000000E+00  0.00000000E+00
  0.00000000E+00  0.00000000E+00  0.00000000E+00
  0.00000000E+00  0.00000000E+00  0.00000000E+00
  0.00000000E+00  0.00000000E+00  0.00000000E+00
  0.00000000E+00  0.00000000E+00  0.00000000E+00
  0.00000000E+00  0.00000000E+00  0.00000000E+00
  0.00000000E+00  0.00000000E+00  0.00000000E+00
  0.00000000E+00  0.00000000E+00  0.00000000E+00
  0.00000000E+00  0.00000000E+00  0.00000000E+00
  0.00000000E+00  0.00000000E+00  0.00000000E+00
  0.00000000E+00  0.00000000E+00  0.00000000E+00
  0.00000000E+00  0.00000000E+00  0.00000000E+00
  0.00000000E+00  0.00000000E+00  0.00000000E+00
  0.00000000E+00  0.00000000E+00  0.00000000E+00
  0.00000000E+00  0.00000000E+00  0.00000000E+00
  0.00000000E+00  0.00000000E+00  0.00000000E+00
  0.00000000E+00  0.00000000E+00  0.00000000E+00
  0.00000000E+00  0.00000000E+00  0.00000000E+00
  0.00000000E+00  0.00000000E+00  0.00000000E+00
  0.00000000E+00  0.00000000E+00  0.00000000E+00
  0.00000000E+00  0.00000000E+00  0.00000000E+00
  0.00000000E+00  0.00000000E+00  0.00000000E+00
  0.00000000E+00  0.00000000E+00  0.00000000E+00
  0.00000000E+00  0.00000000E+00  0.00000000E+00
  0.00000000E+00  0.00000000E+00  0.00000000E+00
  0.00000000E+00  0.00000000E+00  0.00000000E+00
  0.00000000E+00  0.00000000E+00  0.00000000E+00
  0.00000000E+00  0.00000000E+00  0.00000000E+00
  0.00000000E+00  0.00000000E+00  0.00000000E+00
  0.00000000E+00  0.00000000E+00  0.00000000E+00
  0.00000000E+00  0.00000000E+00  0.00000000E+00
  0.00000000E+00  0.00000000E+00  0.00000000E+00
  0.00000000E+00  0.00000000E+00  0.00000000E+00
  0.00000000E+00  0.00000000E+00  0.00000000E+00
  0.00000000E+00  0.00000000E+00  0.00000000E+00
  0.00000000E+00  0.00000000E+00  0.00000000E+00
  0.00000000E+00  0.00000000E+00  0.00000000E+00
  0.00000000E+00  0.00000000E+00  0.00000000E+00
  0.00000000E+00  0.00000000E+00  0.00000000E+00
  0.00000000E+00  0.00000000E+00  0.00000000E+00
  0.00000000E+00  0.00000000E+00  0.00000000E+00
  0.00000000E+00  0.00000000E+00  0.00000000E+00
  0.00000000E+00  0.00000000E+00  0.00000000E+00
  0.00000000E+00  0.00000000E+00  0.00000000E+00
  0.00000000E+00  0.00000000E+00  0.00000000E+00
  0.00000000E+00  0.00000000E+00  0.00000000E+00
  0.00000000E+00  0.00000000E+00  0.00000000E+00
  0.00000000E+00  0.00000000E+00  0.00000000E+00
  0.00000000E+00  0.00000000E+00  0.00000000E+00
  0.00000000E+00  0.00000000E+00  0.00000000E+00
  0.00000000E+00  0.00000000E+00  0.00000000E+00
  0.00000000E+00  0.00000000E+00  0.00000000E+00
  0.00000000E+00  0.00000000E+00  0.00000000E+00
  0.00000000E+00  0.00000000E+00  0.00000000E+00
  0.00000000E+00  0.00000000E+00  0.00000000E+00
  0.00000000E+00  0.00000000E+00  0.00000000E+00
  0.00000000E+00  0.00000000E+00  0.00000000E+00
  0.00000000E+00  0.00000000E+00  0.00000000E+00
  0.00000000E+00  0.00000000E+00  0.00000000E+00
  0.00000000E+00  0.00000000E+00  0.00000000E+00
  0.00000000E+00  0.00000000E+00  0.00000000E+00
  0.00000000E+00  0.00000000E+00  0.00000000E+00
  0.00000000E+00  0.00000000E+00  0.00000000E+00
  0.00000000E+00  0.00000000E+00  0.00000000E+00
  0.00000000E+00  0.00000000E+00  0.00000000E+00
  0.00000000E+00  0.00000000E+00  0.00000000E+00
  0.00000000E+00  0.00000000E+00  0.00000000E+00
  0.00000000E+00  0.00000000E+00  0.00000000E+00
  0.00000000E+00  0.00000000E+00  0.00000000E+00
  0.00000000E+00  0.00000000E+00  0.00000000E+00
  0.00000000E+00  0.00000000E+00  0.00000000E+00
  0.00000000E+00  0.00000000E+00  0.00000000E+00
  0.00000000E+00  0.00000000E+00  0.00000000E+00
  0.00000000E+00  0.00000000E+00  0.00000000E+00
  0.00000000E+00  0.00000000E+00  0.00000000E+00
  0.00000000E+00  0.00000000E+00  0.00000000E+00
  0.00000000E+00  0.00000000E+00  0.00000000E+00
  0.00000000E+00  0.00000000E+00  0.00000000E+00
  0.00000000E+00  0.00000000E+00  0.00000000E+00
  0.00000000E+00  0.00000000E+00  0.00000000E+00
  0.00000000E+00  0.00000000E+00  0.00000000E+00
  0.00000000E+00  0.00000000E+00  0.00000000E+00
  0.00000000E+00  0.00000000E+00  0.00000000E+00
  0.00000000E+00  0.00000000E+00  0.00000000E+00
  0.00000000E+00  0.00000000E+00  0.00000000E+00
  0.00000000E+00  0.00000000E+00  0.00000000E+00
  0.00000000E+00  0.00000000E+00  0.00000000E+00
  0.00000000E+00  0.00000000E+00  0.00000000E+00
  0.00000000E+00  0.00000000E+00  0.00000000E+00
  0.00000000E+00  0.00000000E+00  0.00000000E+00
  0.00000000E+00  0.00000000E+00  0.00000000E+00
  0.00000000E+00  0.00000000E+00  0.00000000E+00
  0.00000000E+00  0.00000000E+00  0.00000000E+00
  0.00000000E+00  0.00000000E+00  0.00000000E+00
  0.00000000E+00  0.00000000E+00  0.00000000E+00
  0.00000000E+00  0.00000000E+00  0.00000000E+00
  0.00000000E+00  0.00000000E+00  0.00000000E+00
  0.00000000E+00  0.00000000E+00  0.00000000E+00
  0.00000000E+00  0.00000000E+00  0.00000000E+00
  0.00000000E+00  0.00000000E+00  0.00000000E+00
  0.00000000E+00  0.00000000E+00  0.00000000E+00
  0.00000000E+00  0.00000000E+00  0.00000000E+00
  0.00000000E+00  0.00000000E+00  0.00000000E+00
  0.00000000E+00  0.00000000E+00  0.00000000E+00
  0.00000000E+00  0.00000000E+00  0.00000000E+00
  0.00000000E+00  0.00000000E+00  0.00000000E+00
  0.00000000E+00  0.00000000E+00  0.00000000E+00
  0.00000000E+00  0.00000000E+00  0.00000000E+00
  0.00000000E+00  0.00000000E+00  0.00000000E+00
  0.00000000E+00  0.00000000E+00  0.00000000E+00
  0.00000000E+00  0.00000000E+00  0.00000000E+00
  0.00000000E+00  0.00000000E+00  0.00000000E+00
  0.00000000E+00  0.00000000E+00  0.00000000E+00
  0.00000000E+00  0.00000000E+00  0.00000000E+00
  0.00000000E+00  0.00000000E+00  0.00000000E+00
  0.00000000E+00  0.00000000E+00  0.00000000E+00
  0.00000000E+00  0.00000000E+00  0.00000000E+00
  0.00000000E+00  0.00000000E+00  0.00000000E+00
  0.00000000E+00  0.00000000E+00  0.00000000E+00
  0.00000000E+00  0.00000000E+00  0.00000000E+00
  0.00000000E+00  0.00000000E+00  0.00000000E+00
  0.00000000E+00  0.00000000E+00  0.00000000E+00
  0.00000000E+00  0.00000000E+00  0.00000000E+00
  0.00000000E+00  0.00000000E+00  0.00000000E+00
  0.00000000E+00  0.00000000E+00  0.00000000E+00
  0.00000000E+00  0.00000000E+00  0.00000000E+00
  0.00000000E+00  0.00000000E+00  0.00000000E+00
  0.00000000E+00  0.00000000E+00  0.00000000E+00
  0.00000000E+00  0.00000000E+00  0.00000000E+00
  0.00000000E+00  0.00000000E+00  0.00000000E+00
  0.00000000E+00  0.00000000E+00  0.00000000E+00
  0.00000000E+00  0.00000000E+00  0.00000000E+00
  0.00000000E+00  0.00000000E+00  0.00000000E+00
  0.00000000E+00  0.00000000E+00  0.00000000E+00
  0.00000000E+00  0.00000000E+00  0.00000000E+00
  0.00000000E+00  0.00000000E+00  0.00000000E+00
  0.00000000E+00  0.00000000E+00  0.00000000E+00
  0.00000000E+00  0.00000000E+00  0.00000000E+00
  0.00000000E+00  0.00000000E+00  0.00000000E+00
  0.00000000E+00  0.00000000E+00  0.00000000E+00
  0.00000000E+00  0.00000000E+00  0.00000000E+00
  0.00000000E+00  0.00000000E+00  0.00000000E+00
  0.00000000E+00  0.00000000E+00  0.00000000E+00
  0.00000000E+00  0.00000000E+00  0.00000000E+00
  0.00000000E+00  0.00000000E+00  0.00000000E+00
  0.00000000E+00  0.00000000E+00  0.00000000E+00
  0.00000000E+00  0.00000000E+00  0.00000000E+00
  0.00000000E+00  0.00000000E+00  0.00000000E+00
  0.00000000E+00  0.00000000E+00  0.00000000E+00
  0.00000000E+00  0.00000000E+00  0.00000000E+00
  0.00000000E+00  0.00000000E+00  0.00000000E+00
  0.00000000E+00  0.00000000E+00  0.00000000E+00
  0.00000000E+00  0.00000000E+00  0.00000000E+00
  0.00000000E+00  0.00000000E+00  0.00000000E+00
  0.00000000E+00  0.00000000E+00  0.00000000E+00
  0.00000000E+00  0.00000000E+00  0.00000000E+00
  0.00000000E+00  0.00000000E+00  0.00000000E+00
  0.00000000E+00  0.00000000E+00  0.00000000E+00
  0.00000000E+00  0.00000000E+00  0.00000000E+00
  0.00000000E+00  0.00000000E+00  0.00000000E+00
  0.00000000E+00  0.00000000E+00  0.00000000E+00
  0.00000000E+00  0.00000000E+00  0.00000000E+00
  0.00000000E+00  0.00000000E+00  0.00000000E+00
  0.00000000E+00  0.00000000E+00  0.00000000E+00
  0.00000000E+00  0.00000000E+00  0.00000000E+00
  0.00000000E+00  0.00000000E+00  0.00000000E+00
  0.00000000E+00  0.00000000E+00  0.00000000E+00
  0.00000000E+00  0.00000000E+00  0.00000000E+00
  0.00000000E+00  0.00000000E+00  0.00000000E+00
  0.00000000E+00  0.00000000E+00  0.00000000E+00
  0.00000000E+00  0.00000000E+00  0.00000000E+00
  0.00000000E+00  0.00000000E+00  0.00000000E+00
  0.00000000E+00  0.00000000E+00  0.00000000E+00
  0.00000000E+00  0.00000000E+00  0.00000000E+00
  0.00000000E+00  0.00000000E+00  0.00000000E+00
  0.00000000E+00  0.00000000E+00  0.00000000E+00
  0.00000000E+00  0.00000000E+00  0.00000000E+00
  0.00000000E+00  0.00000000E+00  0.00000000E+00
