Ti  O                                   
   1.00000000000000     
    12.8783825809832297    0.0000000000000000    0.0000000000000000
     0.0000000000000000   11.6868443333809928    0.0000000000000000
     0.0000000000000000    0.0000000000000000   30.4044782389966777
   Ti   O 
    80   159
Selective dynamics
Direct
  0.5000000000000000  0.1250000000000000  0.2882156950737382   F   F   F
  0.7500000000000000  0.0000000000000000  0.2882156950737382   F   F   F
  0.7500000000000000  0.1250000000000000  0.3941078475368656   F   F   F
  0.5000000000000000  0.0000000000000000  0.3941078475368656   F   F   F
  0.5000000000000000  0.1250000000000000  0.5000000000000000   F   F   F
  0.7500000000000000  0.0000000000000000  0.5000000000000000   F   F   F
  0.7510930996559572  0.1249248169926201  0.6040238061208384   T   T   T
  0.4999972353480872 -0.0000019688185528  0.6114635480275595   T   T   T
  0.5000046524749726  0.1212136786864605  0.7217625739379889   T   T   T
  0.2499745921337012 -0.0000031628132812  0.7075281983528999   T   T   T
  0.5000000000000000  0.3750000000000000  0.2882156950737382   F   F   F
  0.7500000000000000  0.2500000000000000  0.2882156950737382   F   F   F
  0.7500000000000000  0.3750000000000000  0.3941078475368656   F   F   F
  0.5000000000000000  0.2500000000000000  0.3941078475368656   F   F   F
  0.5000000000000000  0.3750000000000000  0.5000000000000000   F   F   F
  0.7500000000000000  0.2500000000000000  0.5000000000000000   F   F   F
  0.7512497119485030  0.3750177006999966  0.6041076806176221   T   T   T
  0.5000060343618474  0.2479812431534118  0.6038265256874191   T   T   T
  0.4999982971713514  0.3562776079080771  0.7071579047755792   T   T   T
  0.2508629219935216  0.2498248879373767  0.7077030613413731   T   T   T
  0.5000000000000000  0.6250000000000000  0.2882156950737382   F   F   F
  0.7500000000000000  0.5000000000000000  0.2882156950737382   F   F   F
  0.7500000000000000  0.6250000000000000  0.3941078475368656   F   F   F
  0.5000000000000000  0.5000000000000000  0.3941078475368656   F   F   F
  0.5000000000000000  0.6250000000000000  0.5000000000000000   F   F   F
  0.7500000000000000  0.5000000000000000  0.5000000000000000   F   F   F
  0.7512572917415594  0.6249682965867630  0.6041140659873451   T   T   T
  0.4999986065045425  0.5000031408792505  0.6073008578843151   T   T   T
  0.4999996225663353  0.6437219800582487  0.7071590329181369   T   T   T
  0.2512393879319553  0.4999986525331090  0.7074969609426908   T   T   T
  0.5000000000000000  0.8750000000000000  0.2882156950737382   F   F   F
  0.7500000000000000  0.7500000000000000  0.2882156950737382   F   F   F
  0.7500000000000000  0.8750000000000000  0.3941078475368656   F   F   F
  0.5000000000000000  0.7500000000000000  0.3941078475368656   F   F   F
  0.5000000000000000  0.8750000000000000  0.5000000000000000   F   F   F
  0.7500000000000000  0.7500000000000000  0.5000000000000000   F   F   F
  0.7511012129545849  0.8750729424803889  0.6040201800838544   T   T   T
  0.5000103461360814  0.7520184829739200  0.6038273132970596   T   T   T
  0.5000081326706813  0.8787844823595062  0.7217625864827081   T   T   T
  0.2508925257382924  0.7501682489431735  0.7076974030022400   T   T   T
  0.0000000000000000  0.1250000000000000  0.2882156950737382   F   F   F
  0.2500000000000000  0.0000000000000000  0.2882156950737382   F   F   F
  0.2500000000000000  0.1250000000000000  0.3941078475368656   F   F   F
  0.0000000000000000  0.0000000000000000  0.3941078475368656   F   F   F
  0.0000000000000000  0.1250000000000000  0.5000000000000000   F   F   F
  0.2500000000000000  0.0000000000000000  0.5000000000000000   F   F   F
  0.2489082198503568  0.1249302939914280  0.6040203454745894   T   T   T
  0.0000053708122935  0.0000014391808346  0.6088259936923081   T   T   T
  0.0000043496559511  0.1250236317445284  0.7177016960826723   T   T   T
  0.7500348757019362 -0.0000039751109110  0.7075299757360359   T   T   T
  0.0000000000000000  0.3750000000000000  0.2882156950737382   F   F   F
  0.2500000000000000  0.2500000000000000  0.2882156950737382   F   F   F
  0.2500000000000000  0.3750000000000000  0.3941078475368656   F   F   F
  0.0000000000000000  0.2500000000000000  0.3941078475368656   F   F   F
  0.0000000000000000  0.3750000000000000  0.5000000000000000   F   F   F
  0.2500000000000000  0.2500000000000000  0.5000000000000000   F   F   F
  0.2487474528591948  0.3750314643762879  0.6041155693351878   T   T   T
 -0.0000009091483873  0.2499692146430172  0.6089011221364959   T   T   T
 -0.0000020322110606  0.3747956840535110  0.7180994024773785   T   T   T
  0.7491191174959850  0.2498290013457342  0.7076990281015945   T   T   T
  0.0000000000000000  0.6250000000000000  0.2882156950737382   F   F   F
  0.2500000000000000  0.5000000000000000  0.2882156950737382   F   F   F
  0.2500000000000000  0.6250000000000000  0.3941078475368656   F   F   F
  0.0000000000000000  0.5000000000000000  0.3941078475368656   F   F   F
  0.0000000000000000  0.6250000000000000  0.5000000000000000   F   F   F
  0.2500000000000000  0.5000000000000000  0.5000000000000000   F   F   F
  0.2487464818226825  0.6249673431238690  0.6041138643747677   T   T   T
 -0.0000065907239646  0.4999988218132487  0.6090691338081876   T   T   T
  0.0000043792538403  0.6252028144882606  0.7181029989417622   T   T   T
  0.7487651448977111  0.5000014472254263  0.7074945267853064   T   T   T
  0.0000000000000000  0.8750000000000000  0.2882156950737382   F   F   F
  0.2500000000000000  0.7500000000000000  0.2882156950737382   F   F   F
  0.2500000000000000  0.8750000000000000  0.3941078475368656   F   F   F
  0.0000000000000000  0.7500000000000000  0.3941078475368656   F   F   F
  0.0000000000000000  0.8750000000000000  0.5000000000000000   F   F   F
  0.2500000000000000  0.7500000000000000  0.5000000000000000   F   F   F
  0.2489082988551365  0.8750715984606990  0.6040193489927032   T   T   T
  0.0000014818887321  0.7500308880238468  0.6089017057944011   T   T   T
  0.0000088026837651  0.8749741486125996  0.7177009762152992   T   T   T
  0.7491167943380233  0.7501683385986863  0.7076984398946411   T   T   T
  0.3480750355150803  0.1250000000000000  0.2882156950737382   F   F   F
  0.6519249644849197  0.1250000000000000  0.2882156950737382   F   F   F
  0.5000000000000000  0.0000000000000000  0.2466741886193731   F   F   F
  0.5000000000000000  0.0000000000000000  0.3297572015280963   F   F   F
  0.5980750355150803  0.1250000000000000  0.3941078475368656   F   F   F
  0.4019249644849197  0.1250000000000000  0.3941078475368656   F   F   F
  0.7500000000000000  0.0000000000000000  0.3525663410825075   F   F   F
  0.7500000000000000  0.0000000000000000  0.4356493539912307   F   F   F
  0.3480750355150803  0.1250000000000000  0.5000000000000000   F   F   F
  0.6519249644849197  0.1250000000000000  0.5000000000000000   F   F   F
  0.5000000000000000  0.0000000000000000  0.4584584935456419   F   F   F
  0.5000000000000000  0.0000000000000000  0.5415415064543581   F   F   F
  0.5991061011456781  0.1249437666075725  0.6068163938780390   T   T   T
  0.4008960237465437  0.1249450320287653  0.6068161568716008   T   T   T
  0.7489505157677637 -0.0000001017327571  0.5648690843167675   T   T   T
  0.2516887329261796 -0.0000022934830857  0.6487543338551146   T   T   T
  0.3449283437823194  0.1245228609171359  0.7191757205798435   T   T   T
  0.6550831308921158  0.1245155669758156  0.7191752310050554   T   T   T
  0.4999994893008968  0.0000020776714849  0.6737850569920116   T   T   T
  0.5000010263755231 -0.0000041543966734  0.7583431333298492   T   T   T
  0.3480750355150803  0.3750000000000000  0.2882156950737382   F   F   F
  0.6519249644849197  0.3750000000000000  0.2882156950737382   F   F   F
  0.5000000000000000  0.2500000000000000  0.2466741886193731   F   F   F
  0.5000000000000000  0.2500000000000000  0.3297572015280963   F   F   F
  0.5980750355150803  0.3750000000000000  0.3941078475368656   F   F   F
  0.4019249644849197  0.3750000000000000  0.3941078475368656   F   F   F
  0.7500000000000000  0.2500000000000000  0.3525663410825075   F   F   F
  0.7500000000000000  0.2500000000000000  0.4356493539912307   F   F   F
  0.3480750355150803  0.3750000000000000  0.5000000000000000   F   F   F
  0.6519249644849197  0.3750000000000000  0.5000000000000000   F   F   F
  0.5000000000000000  0.2500000000000000  0.4584584935456419   F   F   F
  0.5000000000000000  0.2500000000000000  0.5415415064543581   F   F   F
  0.5986039070577909  0.3750413762022485  0.6078338173268123   T   T   T
  0.4013946700102634  0.3750368697058757  0.6078354241090558   T   T   T
  0.7482543016871493  0.2502146816689074  0.5648861380814794   T   T   T
  0.2514790468905096  0.2500427773132607  0.6489176280024617   T   T   T
  0.3489653459998426  0.3768158018863734  0.7178217105738152   T   T   T
  0.6510318003485183  0.3768145033618256  0.7178212902598522   T   T   T
  0.5000003785706555  0.2403211767263499  0.6701599467896902   T   T   T
  0.5000017262377859  0.2555302164176283  0.7523804439316222   T   T   T
  0.3480750355150803  0.6250000000000000  0.2882156950737382   F   F   F
  0.6519249644849197  0.6250000000000000  0.2882156950737382   F   F   F
  0.5000000000000000  0.5000000000000000  0.2466741886193731   F   F   F
  0.5000000000000000  0.5000000000000000  0.3297572015280963   F   F   F
  0.5980750355150803  0.6250000000000000  0.3941078475368656   F   F   F
  0.4019249644849197  0.6250000000000000  0.3941078475368656   F   F   F
  0.7500000000000000  0.5000000000000000  0.3525663410825075   F   F   F
  0.7500000000000000  0.5000000000000000  0.4356493539912307   F   F   F
  0.3480750355150803  0.6250000000000000  0.5000000000000000   F   F   F
  0.6519249644849197  0.6250000000000000  0.5000000000000000   F   F   F
  0.5000000000000000  0.5000000000000000  0.4584584935456419   F   F   F
  0.5000000000000000  0.5000000000000000  0.5415415064543581   F   F   F
  0.5986044224086409  0.6249563112218377  0.6078345341704509   T   T   T
  0.4013956585025079  0.6249618334130700  0.6078348545901034   T   T   T
  0.7478370006899621  0.4999988304081370  0.5648946308375965   T   T   T
  0.2502148777343426  0.4999980108030944  0.6487775563332484   T   T   T
  0.3489695215126811  0.6231816042133289  0.7178216661301849   T   T   T
  0.6510310167462753  0.6231870703643015  0.7178211572104696   T   T   T
  0.4999928733699859  0.5000026458269337  0.6751520864909885   T   T   T
  0.3480750355150803  0.8750000000000000  0.2882156950737382   F   F   F
  0.6519249644849197  0.8750000000000000  0.2882156950737382   F   F   F
  0.5000000000000000  0.7500000000000000  0.2466741886193731   F   F   F
  0.5000000000000000  0.7500000000000000  0.3297572015280963   F   F   F
  0.5980750355150803  0.8750000000000000  0.3941078475368656   F   F   F
  0.4019249644849197  0.8750000000000000  0.3941078475368656   F   F   F
  0.7500000000000000  0.7500000000000000  0.3525663410825075   F   F   F
  0.7500000000000000  0.7500000000000000  0.4356493539912307   F   F   F
  0.3480750355150803  0.8750000000000000  0.5000000000000000   F   F   F
  0.6519249644849197  0.8750000000000000  0.5000000000000000   F   F   F
  0.5000000000000000  0.7500000000000000  0.4584584935456419   F   F   F
  0.5000000000000000  0.7500000000000000  0.5415415064543581   F   F   F
  0.5991061165794773  0.8750544795834790  0.6068157521959925   T   T   T
  0.4008965929564198  0.8750504361538181  0.6068156184864767   T   T   T
  0.7482542942514829  0.7497764508109910  0.5648903236130949   T   T   T
  0.2514842553313038  0.7499549758541553  0.6489130583511065   T   T   T
  0.3449323433726036  0.8754802798808997  0.7191749982887611   T   T   T
  0.6550852395508968  0.8754889043097447  0.7191766931043831   T   T   T
  0.5000011404879540  0.7596820534550770  0.6701599548411196   T   T   T
  0.5000019461778143  0.7444708989488101  0.7523805487117673   T   T   T
  0.8480750355150803  0.1250000000000000  0.2882156950737382   F   F   F
  0.1519249644849197  0.1250000000000000  0.2882156950737382   F   F   F
  0.0000000000000000  0.0000000000000000  0.2466741886193731   F   F   F
  0.0000000000000000  0.0000000000000000  0.3297572015280963   F   F   F
  0.0980750355150803  0.1250000000000000  0.3941078475368656   F   F   F
  0.9019249644849197  0.1250000000000000  0.3941078475368656   F   F   F
  0.2500000000000000  0.0000000000000000  0.3525663410825075   F   F   F
  0.2500000000000000  0.0000000000000000  0.4356493539912307   F   F   F
  0.8480750355150803  0.1250000000000000  0.5000000000000000   F   F   F
  0.1519249644849197  0.1250000000000000  0.5000000000000000   F   F   F
  0.0000000000000000  0.0000000000000000  0.4584584935456419   F   F   F
  0.0000000000000000  0.0000000000000000  0.5415415064543581   F   F   F
  0.1005780378093890  0.1250854035479100  0.6064818741449299   T   T   T
  0.8994223045219467  0.1250831525236797  0.6064822488601375   T   T   T
  0.2510485035843922 -0.0000007571350183  0.5648658886983393   T   T   T
  0.7483190057639441 -0.0000001667597678  0.6487558911462794   T   T   T
  0.8433737062185044  0.1259135098211480  0.7174288783190572   T   T   T
  0.1566362184911646  0.1258989901971465  0.7174266537636762   T   T   T
 -0.0000001960816674 -0.0000006287089489  0.6702202440696939   T   T   T
 -0.0000006702986545 -0.0000011828105755  0.7529451635206901   T   T   T
  0.8480750355150803  0.3750000000000000  0.2882156950737382   F   F   F
  0.1519249644849197  0.3750000000000000  0.2882156950737382   F   F   F
  0.0000000000000000  0.2500000000000000  0.2466741886193731   F   F   F
  0.0000000000000000  0.2500000000000000  0.3297572015280963   F   F   F
  0.0980750355150803  0.3750000000000000  0.3941078475368656   F   F   F
  0.9019249644849197  0.3750000000000000  0.3941078475368656   F   F   F
  0.2500000000000000  0.2500000000000000  0.3525663410825075   F   F   F
  0.2500000000000000  0.2500000000000000  0.4356493539912307   F   F   F
  0.8480750355150803  0.3750000000000000  0.5000000000000000   F   F   F
  0.1519249644849197  0.3750000000000000  0.5000000000000000   F   F   F
  0.0000000000000000  0.2500000000000000  0.4584584935456419   F   F   F
  0.0000000000000000  0.2500000000000000  0.5415415064543581   F   F   F
  0.1005937415471855  0.3750506100611684  0.6063693048999573   T   T   T
  0.8993993086402780  0.3750486139607822  0.6063681460390934   T   T   T
  0.2517448834292145  0.2502242518817535  0.5648859884490777   T   T   T
  0.7485174848759107  0.2500450783447140  0.6489161740719922   T   T   T
  0.8416488720040267  0.3749540458347840  0.7184373822276346   T   T   T
  0.1583469344816502  0.3749534351063344  0.7184362098440870   T   T   T
 -0.0000005998144860  0.2507472996112003  0.6703072910059961   T   T   T
  0.0000010311337899  0.2499655379743403  0.7531780160071051   T   T   T
  0.8480750355150803  0.6250000000000000  0.2882156950737382   F   F   F
  0.1519249644849197  0.6250000000000000  0.2882156950737382   F   F   F
  0.0000000000000000  0.5000000000000000  0.2466741886193731   F   F   F
  0.0000000000000000  0.5000000000000000  0.3297572015280963   F   F   F
  0.0980750355150803  0.6250000000000000  0.3941078475368656   F   F   F
  0.9019249644849197  0.6250000000000000  0.3941078475368656   F   F   F
  0.2500000000000000  0.5000000000000000  0.3525663410825075   F   F   F
  0.2500000000000000  0.5000000000000000  0.4356493539912307   F   F   F
  0.8480750355150803  0.6250000000000000  0.5000000000000000   F   F   F
  0.1519249644849197  0.6250000000000000  0.5000000000000000   F   F   F
  0.0000000000000000  0.5000000000000000  0.4584584935456419   F   F   F
  0.0000000000000000  0.5000000000000000  0.5415415064543581   F   F   F
  0.1005932153346346  0.6249487060714699  0.6063693930889196   T   T   T
  0.8994014778526556  0.6249510720094223  0.6063695010115188   T   T   T
  0.2521614585947446  0.4999975215009216  0.5648929166091727   T   T   T
  0.7497817542174822  0.4999939838015444  0.6487765279586135   T   T   T
  0.8416493711337812  0.6250477361330691  0.7184354946175665   T   T   T
  0.1583520708553103  0.6250513257438755  0.7184337693990205   T   T   T
 -0.0000012177225283  0.4999995875625396  0.6704204096586599   T   T   T
 -0.0000000264654659  0.5000010864722585  0.7532237555776778   T   T   T
  0.8480750355150803  0.8750000000000000  0.2882156950737382   F   F   F
  0.1519249644849197  0.8750000000000000  0.2882156950737382   F   F   F
  0.0000000000000000  0.7500000000000000  0.2466741886193731   F   F   F
  0.0000000000000000  0.7500000000000000  0.3297572015280963   F   F   F
  0.0980750355150803  0.8750000000000000  0.3941078475368656   F   F   F
  0.9019249644849197  0.8750000000000000  0.3941078475368656   F   F   F
  0.2500000000000000  0.7500000000000000  0.3525663410825075   F   F   F
  0.2500000000000000  0.7500000000000000  0.4356493539912307   F   F   F
  0.8480750355150803  0.8750000000000000  0.5000000000000000   F   F   F
  0.1519249644849197  0.8750000000000000  0.5000000000000000   F   F   F
  0.0000000000000000  0.7500000000000000  0.4584584935456419   F   F   F
  0.0000000000000000  0.7500000000000000  0.5415415064543581   F   F   F
  0.1005779047178181  0.8749150045181362  0.6064816041102425   T   T   T
  0.8994245614092710  0.8749169745486899  0.6064820805866090   T   T   T
  0.2517435414539821  0.7497743099060280  0.5648863955153467   T   T   T
  0.7485165820778010  0.7499558544126437  0.6489148954255529   T   T   T
  0.8433731894695744  0.8740855511859748  0.7174274741402207   T   T   T
  0.1566470156620282  0.8740887595223292  0.7174261477816291   T   T   T
  0.0000008203967066  0.7492526835683222  0.6703067745312900   T   T   T
  0.0000009692244824  0.7500328153058123  0.7531768842448516   T   T   T
 
  0.00000000E+00  0.00000000E+00  0.00000000E+00
  0.00000000E+00  0.00000000E+00  0.00000000E+00
  0.00000000E+00  0.00000000E+00  0.00000000E+00
  0.00000000E+00  0.00000000E+00  0.00000000E+00
  0.00000000E+00  0.00000000E+00  0.00000000E+00
  0.00000000E+00  0.00000000E+00  0.00000000E+00
  0.00000000E+00  0.00000000E+00  0.00000000E+00
  0.00000000E+00  0.00000000E+00  0.00000000E+00
  0.00000000E+00  0.00000000E+00  0.00000000E+00
  0.00000000E+00  0.00000000E+00  0.00000000E+00
  0.00000000E+00  0.00000000E+00  0.00000000E+00
  0.00000000E+00  0.00000000E+00  0.00000000E+00
  0.00000000E+00  0.00000000E+00  0.00000000E+00
  0.00000000E+00  0.00000000E+00  0.00000000E+00
  0.00000000E+00  0.00000000E+00  0.00000000E+00
  0.00000000E+00  0.00000000E+00  0.00000000E+00
  0.00000000E+00  0.00000000E+00  0.00000000E+00
  0.00000000E+00  0.00000000E+00  0.00000000E+00
  0.00000000E+00  0.00000000E+00  0.00000000E+00
  0.00000000E+00  0.00000000E+00  0.00000000E+00
  0.00000000E+00  0.00000000E+00  0.00000000E+00
  0.00000000E+00  0.00000000E+00  0.00000000E+00
  0.00000000E+00  0.00000000E+00  0.00000000E+00
  0.00000000E+00  0.00000000E+00  0.00000000E+00
  0.00000000E+00  0.00000000E+00  0.00000000E+00
  0.00000000E+00  0.00000000E+00  0.00000000E+00
  0.00000000E+00  0.00000000E+00  0.00000000E+00
  0.00000000E+00  0.00000000E+00  0.00000000E+00
  0.00000000E+00  0.00000000E+00  0.00000000E+00
  0.00000000E+00  0.00000000E+00  0.00000000E+00
  0.00000000E+00  0.00000000E+00  0.00000000E+00
  0.00000000E+00  0.00000000E+00  0.00000000E+00
  0.00000000E+00  0.00000000E+00  0.00000000E+00
  0.00000000E+00  0.00000000E+00  0.00000000E+00
  0.00000000E+00  0.00000000E+00  0.00000000E+00
  0.00000000E+00  0.00000000E+00  0.00000000E+00
  0.00000000E+00  0.00000000E+00  0.00000000E+00
  0.00000000E+00  0.00000000E+00  0.00000000E+00
  0.00000000E+00  0.00000000E+00  0.00000000E+00
  0.00000000E+00  0.00000000E+00  0.00000000E+00
  0.00000000E+00  0.00000000E+00  0.00000000E+00
  0.00000000E+00  0.00000000E+00  0.00000000E+00
  0.00000000E+00  0.00000000E+00  0.00000000E+00
  0.00000000E+00  0.00000000E+00  0.00000000E+00
  0.00000000E+00  0.00000000E+00  0.00000000E+00
  0.00000000E+00  0.00000000E+00  0.00000000E+00
  0.00000000E+00  0.00000000E+00  0.00000000E+00
  0.00000000E+00  0.00000000E+00  0.00000000E+00
  0.00000000E+00  0.00000000E+00  0.00000000E+00
  0.00000000E+00  0.00000000E+00  0.00000000E+00
  0.00000000E+00  0.00000000E+00  0.00000000E+00
  0.00000000E+00  0.00000000E+00  0.00000000E+00
  0.00000000E+00  0.00000000E+00  0.00000000E+00
  0.00000000E+00  0.00000000E+00  0.00000000E+00
  0.00000000E+00  0.00000000E+00  0.00000000E+00
  0.00000000E+00  0.00000000E+00  0.00000000E+00
  0.00000000E+00  0.00000000E+00  0.00000000E+00
  0.00000000E+00  0.00000000E+00  0.00000000E+00
  0.00000000E+00  0.00000000E+00  0.00000000E+00
  0.00000000E+00  0.00000000E+00  0.00000000E+00
  0.00000000E+00  0.00000000E+00  0.00000000E+00
  0.00000000E+00  0.00000000E+00  0.00000000E+00
  0.00000000E+00  0.00000000E+00  0.00000000E+00
  0.00000000E+00  0.00000000E+00  0.00000000E+00
  0.00000000E+00  0.00000000E+00  0.00000000E+00
  0.00000000E+00  0.00000000E+00  0.00000000E+00
  0.00000000E+00  0.00000000E+00  0.00000000E+00
  0.00000000E+00  0.00000000E+00  0.00000000E+00
  0.00000000E+00  0.00000000E+00  0.00000000E+00
  0.00000000E+00  0.00000000E+00  0.00000000E+00
  0.00000000E+00  0.00000000E+00  0.00000000E+00
  0.00000000E+00  0.00000000E+00  0.00000000E+00
  0.00000000E+00  0.00000000E+00  0.00000000E+00
  0.00000000E+00  0.00000000E+00  0.00000000E+00
  0.00000000E+00  0.00000000E+00  0.00000000E+00
  0.00000000E+00  0.00000000E+00  0.00000000E+00
  0.00000000E+00  0.00000000E+00  0.00000000E+00
  0.00000000E+00  0.00000000E+00  0.00000000E+00
  0.00000000E+00  0.00000000E+00  0.00000000E+00
  0.00000000E+00  0.00000000E+00  0.00000000E+00
  0.00000000E+00  0.00000000E+00  0.00000000E+00
  0.00000000E+00  0.00000000E+00  0.00000000E+00
  0.00000000E+00  0.00000000E+00  0.00000000E+00
  0.00000000E+00  0.00000000E+00  0.00000000E+00
  0.00000000E+00  0.00000000E+00  0.00000000E+00
  0.00000000E+00  0.00000000E+00  0.00000000E+00
  0.00000000E+00  0.00000000E+00  0.00000000E+00
  0.00000000E+00  0.00000000E+00  0.00000000E+00
  0.00000000E+00  0.00000000E+00  0.00000000E+00
  0.00000000E+00  0.00000000E+00  0.00000000E+00
  0.00000000E+00  0.00000000E+00  0.00000000E+00
  0.00000000E+00  0.00000000E+00  0.00000000E+00
  0.00000000E+00  0.00000000E+00  0.00000000E+00
  0.00000000E+00  0.00000000E+00  0.00000000E+00
  0.00000000E+00  0.00000000E+00  0.00000000E+00
  0.00000000E+00  0.00000000E+00  0.00000000E+00
  0.00000000E+00  0.00000000E+00  0.00000000E+00
  0.00000000E+00  0.00000000E+00  0.00000000E+00
  0.00000000E+00  0.00000000E+00  0.00000000E+00
  0.00000000E+00  0.00000000E+00  0.00000000E+00
  0.00000000E+00  0.00000000E+00  0.00000000E+00
  0.00000000E+00  0.00000000E+00  0.00000000E+00
  0.00000000E+00  0.00000000E+00  0.00000000E+00
  0.00000000E+00  0.00000000E+00  0.00000000E+00
  0.00000000E+00  0.00000000E+00  0.00000000E+00
  0.00000000E+00  0.00000000E+00  0.00000000E+00
  0.00000000E+00  0.00000000E+00  0.00000000E+00
  0.00000000E+00  0.00000000E+00  0.00000000E+00
  0.00000000E+00  0.00000000E+00  0.00000000E+00
  0.00000000E+00  0.00000000E+00  0.00000000E+00
  0.00000000E+00  0.00000000E+00  0.00000000E+00
  0.00000000E+00  0.00000000E+00  0.00000000E+00
  0.00000000E+00  0.00000000E+00  0.00000000E+00
  0.00000000E+00  0.00000000E+00  0.00000000E+00
  0.00000000E+00  0.00000000E+00  0.00000000E+00
  0.00000000E+00  0.00000000E+00  0.00000000E+00
  0.00000000E+00  0.00000000E+00  0.00000000E+00
  0.00000000E+00  0.00000000E+00  0.00000000E+00
  0.00000000E+00  0.00000000E+00  0.00000000E+00
  0.00000000E+00  0.00000000E+00  0.00000000E+00
  0.00000000E+00  0.00000000E+00  0.00000000E+00
  0.00000000E+00  0.00000000E+00  0.00000000E+00
  0.00000000E+00  0.00000000E+00  0.00000000E+00
  0.00000000E+00  0.00000000E+00  0.00000000E+00
  0.00000000E+00  0.00000000E+00  0.00000000E+00
  0.00000000E+00  0.00000000E+00  0.00000000E+00
  0.00000000E+00  0.00000000E+00  0.00000000E+00
  0.00000000E+00  0.00000000E+00  0.00000000E+00
  0.00000000E+00  0.00000000E+00  0.00000000E+00
  0.00000000E+00  0.00000000E+00  0.00000000E+00
  0.00000000E+00  0.00000000E+00  0.00000000E+00
  0.00000000E+00  0.00000000E+00  0.00000000E+00
  0.00000000E+00  0.00000000E+00  0.00000000E+00
  0.00000000E+00  0.00000000E+00  0.00000000E+00
  0.00000000E+00  0.00000000E+00  0.00000000E+00
  0.00000000E+00  0.00000000E+00  0.00000000E+00
  0.00000000E+00  0.00000000E+00  0.00000000E+00
  0.00000000E+00  0.00000000E+00  0.00000000E+00
  0.00000000E+00  0.00000000E+00  0.00000000E+00
  0.00000000E+00  0.00000000E+00  0.00000000E+00
  0.00000000E+00  0.00000000E+00  0.00000000E+00
  0.00000000E+00  0.00000000E+00  0.00000000E+00
  0.00000000E+00  0.00000000E+00  0.00000000E+00
  0.00000000E+00  0.00000000E+00  0.00000000E+00
  0.00000000E+00  0.00000000E+00  0.00000000E+00
  0.00000000E+00  0.00000000E+00  0.00000000E+00
  0.00000000E+00  0.00000000E+00  0.00000000E+00
  0.00000000E+00  0.00000000E+00  0.00000000E+00
  0.00000000E+00  0.00000000E+00  0.00000000E+00
  0.00000000E+00  0.00000000E+00  0.00000000E+00
  0.00000000E+00  0.00000000E+00  0.00000000E+00
  0.00000000E+00  0.00000000E+00  0.00000000E+00
  0.00000000E+00  0.00000000E+00  0.00000000E+00
  0.00000000E+00  0.00000000E+00  0.00000000E+00
  0.00000000E+00  0.00000000E+00  0.00000000E+00
  0.00000000E+00  0.00000000E+00  0.00000000E+00
  0.00000000E+00  0.00000000E+00  0.00000000E+00
  0.00000000E+00  0.00000000E+00  0.00000000E+00
  0.00000000E+00  0.00000000E+00  0.00000000E+00
  0.00000000E+00  0.00000000E+00  0.00000000E+00
  0.00000000E+00  0.00000000E+00  0.00000000E+00
  0.00000000E+00  0.00000000E+00  0.00000000E+00
  0.00000000E+00  0.00000000E+00  0.00000000E+00
  0.00000000E+00  0.00000000E+00  0.00000000E+00
  0.00000000E+00  0.00000000E+00  0.00000000E+00
  0.00000000E+00  0.00000000E+00  0.00000000E+00
  0.00000000E+00  0.00000000E+00  0.00000000E+00
  0.00000000E+00  0.00000000E+00  0.00000000E+00
  0.00000000E+00  0.00000000E+00  0.00000000E+00
  0.00000000E+00  0.00000000E+00  0.00000000E+00
  0.00000000E+00  0.00000000E+00  0.00000000E+00
  0.00000000E+00  0.00000000E+00  0.00000000E+00
  0.00000000E+00  0.00000000E+00  0.00000000E+00
  0.00000000E+00  0.00000000E+00  0.00000000E+00
  0.00000000E+00  0.00000000E+00  0.00000000E+00
  0.00000000E+00  0.00000000E+00  0.00000000E+00
  0.00000000E+00  0.00000000E+00  0.00000000E+00
  0.00000000E+00  0.00000000E+00  0.00000000E+00
  0.00000000E+00  0.00000000E+00  0.00000000E+00
  0.00000000E+00  0.00000000E+00  0.00000000E+00
  0.00000000E+00  0.00000000E+00  0.00000000E+00
  0.00000000E+00  0.00000000E+00  0.00000000E+00
  0.00000000E+00  0.00000000E+00  0.00000000E+00
  0.00000000E+00  0.00000000E+00  0.00000000E+00
  0.00000000E+00  0.00000000E+00  0.00000000E+00
  0.00000000E+00  0.00000000E+00  0.00000000E+00
  0.00000000E+00  0.00000000E+00  0.00000000E+00
  0.00000000E+00  0.00000000E+00  0.00000000E+00
  0.00000000E+00  0.00000000E+00  0.00000000E+00
  0.00000000E+00  0.00000000E+00  0.00000000E+00
  0.00000000E+00  0.00000000E+00  0.00000000E+00
  0.00000000E+00  0.00000000E+00  0.00000000E+00
  0.00000000E+00  0.00000000E+00  0.00000000E+00
  0.00000000E+00  0.00000000E+00  0.00000000E+00
  0.00000000E+00  0.00000000E+00  0.00000000E+00
  0.00000000E+00  0.00000000E+00  0.00000000E+00
  0.00000000E+00  0.00000000E+00  0.00000000E+00
  0.00000000E+00  0.00000000E+00  0.00000000E+00
  0.00000000E+00  0.00000000E+00  0.00000000E+00
  0.00000000E+00  0.00000000E+00  0.00000000E+00
  0.00000000E+00  0.00000000E+00  0.00000000E+00
  0.00000000E+00  0.00000000E+00  0.00000000E+00
  0.00000000E+00  0.00000000E+00  0.00000000E+00
  0.00000000E+00  0.00000000E+00  0.00000000E+00
  0.00000000E+00  0.00000000E+00  0.00000000E+00
  0.00000000E+00  0.00000000E+00  0.00000000E+00
  0.00000000E+00  0.00000000E+00  0.00000000E+00
  0.00000000E+00  0.00000000E+00  0.00000000E+00
  0.00000000E+00  0.00000000E+00  0.00000000E+00
  0.00000000E+00  0.00000000E+00  0.00000000E+00
  0.00000000E+00  0.00000000E+00  0.00000000E+00
  0.00000000E+00  0.00000000E+00  0.00000000E+00
  0.00000000E+00  0.00000000E+00  0.00000000E+00
  0.00000000E+00  0.00000000E+00  0.00000000E+00
  0.00000000E+00  0.00000000E+00  0.00000000E+00
  0.00000000E+00  0.00000000E+00  0.00000000E+00
  0.00000000E+00  0.00000000E+00  0.00000000E+00
  0.00000000E+00  0.00000000E+00  0.00000000E+00
  0.00000000E+00  0.00000000E+00  0.00000000E+00
  0.00000000E+00  0.00000000E+00  0.00000000E+00
  0.00000000E+00  0.00000000E+00  0.00000000E+00
  0.00000000E+00  0.00000000E+00  0.00000000E+00
  0.00000000E+00  0.00000000E+00  0.00000000E+00
  0.00000000E+00  0.00000000E+00  0.00000000E+00
  0.00000000E+00  0.00000000E+00  0.00000000E+00
  0.00000000E+00  0.00000000E+00  0.00000000E+00
  0.00000000E+00  0.00000000E+00  0.00000000E+00
  0.00000000E+00  0.00000000E+00  0.00000000E+00
  0.00000000E+00  0.00000000E+00  0.00000000E+00
  0.00000000E+00  0.00000000E+00  0.00000000E+00
  0.00000000E+00  0.00000000E+00  0.00000000E+00
  0.00000000E+00  0.00000000E+00  0.00000000E+00
  0.00000000E+00  0.00000000E+00  0.00000000E+00
  0.00000000E+00  0.00000000E+00  0.00000000E+00
  0.00000000E+00  0.00000000E+00  0.00000000E+00
  0.00000000E+00  0.00000000E+00  0.00000000E+00
  0.00000000E+00  0.00000000E+00  0.00000000E+00
  0.00000000E+00  0.00000000E+00  0.00000000E+00
  0.00000000E+00  0.00000000E+00  0.00000000E+00
