 O Ti                                   
   1.0000000000000000     
    13.0160748915413169    0.0000000000000000    0.0000000000000000
     0.0000000000000000   11.8443707738385253    0.0000000000000000
     0.0000000000000000    0.0000000000000000   27.5655356285642625
   O    Ti
   160    80
Selective dynamics
Direct
  0.0977323101498797  0.1250000000000000  0.2638109836218376   F   F   F
  0.4022676898501203  0.1250000000000000  0.2638109836218376   F   F   F
  0.2500000000000000  0.0000000000000000  0.2176631022465116   F   F   F
  0.2500000000000000  0.0000000000000000  0.3099588649971636   F   F   F
  0.3477323101498797  0.1250000000000000  0.3818576186204012   F   F   F
  0.1522676898501203  0.1250000000000000  0.3818576186204012   F   F   F
  0.0000000000000000  0.0000000000000000  0.3357097372450895   F   F   F
  0.0000000000000000  0.0000000000000000  0.4280054999957272   F   F   F
  0.0977323101498797  0.1250000000000000  0.4999042536189862   F   F   F
  0.4022676898501203  0.1250000000000000  0.4999042536189862   F   F   F
  0.2500000000000000  0.0000000000000000  0.4537563722436602   F   F   F
  0.2500000000000000  0.0000000000000000  0.5460521349943122   F   F   F
  0.3499605291145045  0.1250000121970771  0.6184926731523035   T   T   T
  0.1500417087196482  0.1250000203028492  0.6184928702921155   T   T   T
  0.0000006479079531  0.9999999942022555  0.5723503341044065   T   T   T
  0.0000007263748998  0.0000000308734087  0.6648023017753673   T   T   T
  0.0936352348644718  0.1249999508623034  0.7420150423873579   T   T   T
  0.4063657135038952  0.1249999589418351  0.7420151228820018   T   T   T
  0.2500005756684516  0.4999999900765957  0.6898880395999214   T   T   T
  0.2500002357844266  0.0000000846242969  0.7823368977534884   T   T   T
  0.0977323101498797  0.3750000000000000  0.2638109836218376   F   F   F
  0.4022676898501203  0.3750000000000000  0.2638109836218376   F   F   F
  0.2500000000000000  0.2500000000000000  0.2176631022465116   F   F   F
  0.2500000000000000  0.2500000000000000  0.3099588649971636   F   F   F
  0.3477323101498797  0.3750000000000000  0.3818576186204012   F   F   F
  0.1522676898501203  0.3750000000000000  0.3818576186204012   F   F   F
  0.0000000000000000  0.2500000000000000  0.3357097372450895   F   F   F
  0.0000000000000000  0.2500000000000000  0.4280054999957272   F   F   F
  0.0977323101498797  0.3750000000000000  0.4999042536189862   F   F   F
  0.4022676898501203  0.3750000000000000  0.4999042536189862   F   F   F
  0.2500000000000000  0.2500000000000000  0.4537563722436602   F   F   F
  0.2500000000000000  0.2500000000000000  0.5460521349943122   F   F   F
  0.3499605231504148  0.3749999626974443  0.6184926794062093   T   T   T
  0.1500417129587461  0.3749999763264427  0.6184928773917946   T   T   T
  0.0000006594552815  0.2500000187478264  0.5723503194481552   T   T   T
  0.0000007413255503  0.2499999633234111  0.6648022673106340   T   T   T
  0.0936352400005589  0.3750000458987301  0.7420149996927847   T   T   T
  0.4063656645372475  0.3750000649534613  0.7420150749438648   T   T   T
  0.2500005815060220  0.2499999542700806  0.6898879901306429   T   T   T
  0.2500002067803919  0.2499999169806486  0.7823367991630263   T   T   T
  0.0977323101498797  0.6250000000000000  0.2638109836218376   F   F   F
  0.4022676898501203  0.6250000000000000  0.2638109836218376   F   F   F
  0.2500000000000000  0.5000000000000000  0.2176631022465116   F   F   F
  0.2500000000000000  0.5000000000000000  0.3099588649971636   F   F   F
  0.3477323101498797  0.6250000000000000  0.3818576186204012   F   F   F
  0.1522676898501203  0.6250000000000000  0.3818576186204012   F   F   F
  0.0000000000000000  0.5000000000000000  0.3357097372450895   F   F   F
  0.0000000000000000  0.5000000000000000  0.4280054999957272   F   F   F
  0.0977323101498797  0.6250000000000000  0.4999042536189862   F   F   F
  0.4022676898501203  0.6250000000000000  0.4999042536189862   F   F   F
  0.2500000000000000  0.5000000000000000  0.4537563722436602   F   F   F
  0.2500000000000000  0.5000000000000000  0.5460521349943122   F   F   F
  0.3499605291145045  0.6250000121970771  0.6184926731523035   T   T   T
  0.1500417087196482  0.6250000203028492  0.6184928702921155   T   T   T
  0.0000006479079531  0.4999999942022555  0.5723503341044065   T   T   T
  0.0000007263748998  0.5000000308734087  0.6648023017753673   T   T   T
  0.0936352348644718  0.6249999508623034  0.7420150423873579   T   T   T
  0.4063657135038952  0.6249999589418351  0.7420151228820018   T   T   T
  0.2500005756684516  0.9999999900765957  0.6898880395999214   T   T   T
  0.2500002357844266  0.5000000846242969  0.7823368977534884   T   T   T
  0.0977323101498797  0.8750000000000000  0.2638109836218376   F   F   F
  0.4022676898501203  0.8750000000000000  0.2638109836218376   F   F   F
  0.2500000000000000  0.7500000000000000  0.2176631022465116   F   F   F
  0.2500000000000000  0.7500000000000000  0.3099588649971636   F   F   F
  0.3477323101498797  0.8750000000000000  0.3818576186204012   F   F   F
  0.1522676898501203  0.8750000000000000  0.3818576186204012   F   F   F
  0.0000000000000000  0.7500000000000000  0.3357097372450895   F   F   F
  0.0000000000000000  0.7500000000000000  0.4280054999957272   F   F   F
  0.0977323101498797  0.8750000000000000  0.4999042536189862   F   F   F
  0.4022676898501203  0.8750000000000000  0.4999042536189862   F   F   F
  0.2500000000000000  0.7500000000000000  0.4537563722436602   F   F   F
  0.2500000000000000  0.7500000000000000  0.5460521349943122   F   F   F
  0.3499605231504148  0.8749999626974443  0.6184926794062093   T   T   T
  0.1500417129587461  0.8749999763264427  0.6184928773917946   T   T   T
  0.0000006594552815  0.7500000187478264  0.5723503194481552   T   T   T
  0.0000007413255503  0.7499999633234111  0.6648022673106340   T   T   T
  0.0936352400005589  0.8750000458987301  0.7420149996927847   T   T   T
  0.4063656645372475  0.8750000649534613  0.7420150749438648   T   T   T
  0.2500005815060220  0.7499999542700806  0.6898879901306429   T   T   T
  0.2500002067803919  0.7499999169806486  0.7823367991630263   T   T   T
  0.5977323101498797  0.1250000000000000  0.2638109836218376   F   F   F
  0.9022676898501203  0.1250000000000000  0.2638109836218376   F   F   F
  0.7500000000000000  0.0000000000000000  0.2176631022465116   F   F   F
  0.7500000000000000  0.0000000000000000  0.3099588649971636   F   F   F
  0.8477323101498797  0.1250000000000000  0.3818576186204012   F   F   F
  0.6522676898501203  0.1250000000000000  0.3818576186204012   F   F   F
  0.5000000000000000  0.0000000000000000  0.3357097372450895   F   F   F
  0.5000000000000000  0.0000000000000000  0.4280054999957272   F   F   F
  0.5977323101498797  0.1250000000000000  0.4999042536189862   F   F   F
  0.9022676898501203  0.1250000000000000  0.4999042536189862   F   F   F
  0.7500000000000000  0.0000000000000000  0.4537563722436602   F   F   F
  0.7500000000000000  0.0000000000000000  0.5460521349943122   F   F   F
  0.8499605291145045  0.1250000121970771  0.6184926731523035   T   T   T
  0.6500417087196482  0.1250000203028492  0.6184928702921155   T   T   T
  0.5000006479079531  0.9999999942022555  0.5723503341044065   T   T   T
  0.5000007263748998  0.0000000308734087  0.6648023017753673   T   T   T
  0.5936352348644718  0.1249999508623034  0.7420150423873579   T   T   T
  0.9063657135038952  0.1249999589418351  0.7420151228820018   T   T   T
  0.7500005756684516  0.4999999900765957  0.6898880395999214   T   T   T
  0.7500002357844266  0.0000000846242969  0.7823368977534884   T   T   T
  0.5977323101498797  0.3750000000000000  0.2638109836218376   F   F   F
  0.9022676898501203  0.3750000000000000  0.2638109836218376   F   F   F
  0.7500000000000000  0.2500000000000000  0.2176631022465116   F   F   F
  0.7500000000000000  0.2500000000000000  0.3099588649971636   F   F   F
  0.8477323101498797  0.3750000000000000  0.3818576186204012   F   F   F
  0.6522676898501203  0.3750000000000000  0.3818576186204012   F   F   F
  0.5000000000000000  0.2500000000000000  0.3357097372450895   F   F   F
  0.5000000000000000  0.2500000000000000  0.4280054999957272   F   F   F
  0.5977323101498797  0.3750000000000000  0.4999042536189862   F   F   F
  0.9022676898501203  0.3750000000000000  0.4999042536189862   F   F   F
  0.7500000000000000  0.2500000000000000  0.4537563722436602   F   F   F
  0.7500000000000000  0.2500000000000000  0.5460521349943122   F   F   F
  0.8499605231504148  0.3749999626974443  0.6184926794062093   T   T   T
  0.6500417129587461  0.3749999763264427  0.6184928773917946   T   T   T
  0.5000006594552815  0.2500000187478264  0.5723503194481552   T   T   T
  0.5000007413255503  0.2499999633234111  0.6648022673106340   T   T   T
  0.5936352400005589  0.3750000458987301  0.7420149996927847   T   T   T
  0.9063656645372475  0.3750000649534613  0.7420150749438648   T   T   T
  0.7500005815060220  0.2499999542700806  0.6898879901306429   T   T   T
  0.7500002067803919  0.2499999169806486  0.7823367991630263   T   T   T
  0.5977323101498797  0.6250000000000000  0.2638109836218376   F   F   F
  0.9022676898501203  0.6250000000000000  0.2638109836218376   F   F   F
  0.7500000000000000  0.5000000000000000  0.2176631022465116   F   F   F
  0.7500000000000000  0.5000000000000000  0.3099588649971636   F   F   F
  0.8477323101498797  0.6250000000000000  0.3818576186204012   F   F   F
  0.6522676898501203  0.6250000000000000  0.3818576186204012   F   F   F
  0.5000000000000000  0.5000000000000000  0.3357097372450895   F   F   F
  0.5000000000000000  0.5000000000000000  0.4280054999957272   F   F   F
  0.5977323101498797  0.6250000000000000  0.4999042536189862   F   F   F
  0.9022676898501203  0.6250000000000000  0.4999042536189862   F   F   F
  0.7500000000000000  0.5000000000000000  0.4537563722436602   F   F   F
  0.7500000000000000  0.5000000000000000  0.5460521349943122   F   F   F
  0.8499605291145045  0.6250000121970771  0.6184926731523035   T   T   T
  0.6500417087196482  0.6250000203028492  0.6184928702921155   T   T   T
  0.5000006479079531  0.4999999942022555  0.5723503341044065   T   T   T
  0.5000007263748998  0.5000000308734087  0.6648023017753673   T   T   T
  0.5936352348644718  0.6249999508623034  0.7420150423873579   T   T   T
  0.9063657135038952  0.6249999589418351  0.7420151228820018   T   T   T
  0.7500005756684516  0.9999999900765957  0.6898880395999214   T   T   T
  0.7500002357844266  0.5000000846242969  0.7823368977534884   T   T   T
  0.5977323101498797  0.8750000000000000  0.2638109836218376   F   F   F
  0.9022676898501203  0.8750000000000000  0.2638109836218376   F   F   F
  0.7500000000000000  0.7500000000000000  0.2176631022465116   F   F   F
  0.7500000000000000  0.7500000000000000  0.3099588649971636   F   F   F
  0.8477323101498797  0.8750000000000000  0.3818576186204012   F   F   F
  0.6522676898501203  0.8750000000000000  0.3818576186204012   F   F   F
  0.5000000000000000  0.7500000000000000  0.3357097372450895   F   F   F
  0.5000000000000000  0.7500000000000000  0.4280054999957272   F   F   F
  0.5977323101498797  0.8750000000000000  0.4999042536189862   F   F   F
  0.9022676898501203  0.8750000000000000  0.4999042536189862   F   F   F
  0.7500000000000000  0.7500000000000000  0.4537563722436602   F   F   F
  0.7500000000000000  0.7500000000000000  0.5460521349943122   F   F   F
  0.8499605231504148  0.8749999626974443  0.6184926794062093   T   T   T
  0.6500417129587461  0.8749999763264427  0.6184928773917946   T   T   T
  0.5000006594552815  0.7500000187478264  0.5723503194481552   T   T   T
  0.5000007413255503  0.7499999633234111  0.6648022673106340   T   T   T
  0.5936352400005589  0.8750000458987301  0.7420149996927847   T   T   T
  0.9063656645372475  0.8750000649534613  0.7420150749438648   T   T   T
  0.7500005815060220  0.7499999542700806  0.6898879901306429   T   T   T
  0.7500002067803919  0.7499999169806486  0.7823367991630263   T   T   T
  0.2500000000000000  0.1250000000000000  0.2638109836218376   F   F   F
  0.0000000000000000  0.0000000000000000  0.2638109836218376   F   F   F
  0.0000000000000000  0.1250000000000000  0.3818576186204012   F   F   F
  0.2500000000000000  0.0000000000000000  0.3818576186204012   F   F   F
  0.2500000000000000  0.1250000000000000  0.4999042536189862   F   F   F
  0.0000000000000000  0.0000000000000000  0.4999042536189862   F   F   F
  0.4999950501122328  0.1249999636722308  0.6154650462649158   T   T   T
  0.2499962250722874  0.0000000246682887  0.6222499411877891   T   T   T
  0.2500006483489798  0.1250004838868506  0.7435592815092207   T   T   T
  0.0000005080000420  0.9999999900344889  0.7305634934841052   T   T   T
  0.2500000000000000  0.3750000000000000  0.2638109836218376   F   F   F
  0.0000000000000000  0.2500000000000000  0.2638109836218376   F   F   F
  0.0000000000000000  0.3750000000000000  0.3818576186204012   F   F   F
  0.2500000000000000  0.2500000000000000  0.3818576186204012   F   F   F
  0.2500000000000000  0.3750000000000000  0.4999042536189862   F   F   F
  0.0000000000000000  0.2500000000000000  0.4999042536189862   F   F   F
  0.4999950350690412  0.3750000461047023  0.6154650618369644   T   T   T
  0.2499962358398093  0.2500000407556939  0.6222500100176376   T   T   T
  0.2500006599529669  0.3749995480084323  0.7435594512540362   T   T   T
  0.0000004636441631  0.2500000415310524  0.7305634814313891   T   T   T
  0.2500000000000000  0.6250000000000000  0.2638109836218376   F   F   F
  0.0000000000000000  0.5000000000000000  0.2638109836218376   F   F   F
  0.0000000000000000  0.6250000000000000  0.3818576186204012   F   F   F
  0.2500000000000000  0.5000000000000000  0.3818576186204012   F   F   F
  0.2500000000000000  0.6250000000000000  0.4999042536189862   F   F   F
  0.0000000000000000  0.5000000000000000  0.4999042536189862   F   F   F
  0.4999950501122328  0.6249999636722308  0.6154650462649158   T   T   T
  0.2499962250722874  0.5000000246682887  0.6222499411877891   T   T   T
  0.2500006483489798  0.6250004838868506  0.7435592815092207   T   T   T
  0.0000005080000420  0.4999999900344889  0.7305634934841052   T   T   T
  0.2500000000000000  0.8750000000000000  0.2638109836218376   F   F   F
  0.0000000000000000  0.7500000000000000  0.2638109836218376   F   F   F
  0.0000000000000000  0.8750000000000000  0.3818576186204012   F   F   F
  0.2500000000000000  0.7500000000000000  0.3818576186204012   F   F   F
  0.2500000000000000  0.8750000000000000  0.4999042536189862   F   F   F
  0.0000000000000000  0.7500000000000000  0.4999042536189862   F   F   F
  0.4999950350690412  0.8750000461047023  0.6154650618369644   T   T   T
  0.2499962358398093  0.7500000407556939  0.6222500100176376   T   T   T
  0.2500006599529669  0.8749995480084323  0.7435594512540362   T   T   T
  0.0000004636441631  0.7500000415310524  0.7305634814313891   T   T   T
  0.7500000000000000  0.1250000000000000  0.2638109836218376   F   F   F
  0.5000000000000000  0.0000000000000000  0.2638109836218376   F   F   F
  0.5000000000000000  0.1250000000000000  0.3818576186204012   F   F   F
  0.7500000000000000  0.0000000000000000  0.3818576186204012   F   F   F
  0.7500000000000000  0.1250000000000000  0.4999042536189862   F   F   F
  0.5000000000000000  0.0000000000000000  0.4999042536189862   F   F   F
  0.9999950501122328  0.1249999636722308  0.6154650462649158   T   T   T
  0.7499962250722874  0.0000000246682887  0.6222499411877891   T   T   T
  0.7500006483489798  0.1250004838868506  0.7435592815092207   T   T   T
  0.5000005080000420  0.9999999900344889  0.7305634934841052   T   T   T
  0.7500000000000000  0.3750000000000000  0.2638109836218376   F   F   F
  0.5000000000000000  0.2500000000000000  0.2638109836218376   F   F   F
  0.5000000000000000  0.3750000000000000  0.3818576186204012   F   F   F
  0.7500000000000000  0.2500000000000000  0.3818576186204012   F   F   F
  0.7500000000000000  0.3750000000000000  0.4999042536189862   F   F   F
  0.5000000000000000  0.2500000000000000  0.4999042536189862   F   F   F
  0.9999950350690412  0.3750000461047023  0.6154650618369644   T   T   T
  0.7499962358398093  0.2500000407556939  0.6222500100176376   T   T   T
  0.7500006599529669  0.3749995480084323  0.7435594512540362   T   T   T
  0.5000004636441631  0.2500000415310524  0.7305634814313891   T   T   T
  0.7500000000000000  0.6250000000000000  0.2638109836218376   F   F   F
  0.5000000000000000  0.5000000000000000  0.2638109836218376   F   F   F
  0.5000000000000000  0.6250000000000000  0.3818576186204012   F   F   F
  0.7500000000000000  0.5000000000000000  0.3818576186204012   F   F   F
  0.7500000000000000  0.6250000000000000  0.4999042536189862   F   F   F
  0.5000000000000000  0.5000000000000000  0.4999042536189862   F   F   F
  0.9999950501122328  0.6249999636722308  0.6154650462649158   T   T   T
  0.7499962250722874  0.5000000246682887  0.6222499411877891   T   T   T
  0.7500006483489798  0.6250004838868506  0.7435592815092207   T   T   T
  0.5000005080000420  0.4999999900344889  0.7305634934841052   T   T   T
  0.7500000000000000  0.8750000000000000  0.2638109836218376   F   F   F
  0.5000000000000000  0.7500000000000000  0.2638109836218376   F   F   F
  0.5000000000000000  0.8750000000000000  0.3818576186204012   F   F   F
  0.7500000000000000  0.7500000000000000  0.3818576186204012   F   F   F
  0.7500000000000000  0.8750000000000000  0.4999042536189862   F   F   F
  0.5000000000000000  0.7500000000000000  0.4999042536189862   F   F   F
  0.9999950350690412  0.8750000461047023  0.6154650618369644   T   T   T
  0.7499962358398093  0.7500000407556939  0.6222500100176376   T   T   T
  0.7500006599529669  0.8749995480084323  0.7435594512540362   T   T   T
  0.5000004636441631  0.7500000415310524  0.7305634814313891   T   T   T

  0.00000000E+00  0.00000000E+00  0.00000000E+00
  0.00000000E+00  0.00000000E+00  0.00000000E+00
  0.00000000E+00  0.00000000E+00  0.00000000E+00
  0.00000000E+00  0.00000000E+00  0.00000000E+00
  0.00000000E+00  0.00000000E+00  0.00000000E+00
  0.00000000E+00  0.00000000E+00  0.00000000E+00
  0.00000000E+00  0.00000000E+00  0.00000000E+00
  0.00000000E+00  0.00000000E+00  0.00000000E+00
  0.00000000E+00  0.00000000E+00  0.00000000E+00
  0.00000000E+00  0.00000000E+00  0.00000000E+00
  0.00000000E+00  0.00000000E+00  0.00000000E+00
  0.00000000E+00  0.00000000E+00  0.00000000E+00
  0.00000000E+00  0.00000000E+00  0.00000000E+00
  0.00000000E+00  0.00000000E+00  0.00000000E+00
  0.00000000E+00  0.00000000E+00  0.00000000E+00
  0.00000000E+00  0.00000000E+00  0.00000000E+00
  0.00000000E+00  0.00000000E+00  0.00000000E+00
  0.00000000E+00  0.00000000E+00  0.00000000E+00
  0.00000000E+00  0.00000000E+00  0.00000000E+00
  0.00000000E+00  0.00000000E+00  0.00000000E+00
  0.00000000E+00  0.00000000E+00  0.00000000E+00
  0.00000000E+00  0.00000000E+00  0.00000000E+00
  0.00000000E+00  0.00000000E+00  0.00000000E+00
  0.00000000E+00  0.00000000E+00  0.00000000E+00
  0.00000000E+00  0.00000000E+00  0.00000000E+00
  0.00000000E+00  0.00000000E+00  0.00000000E+00
  0.00000000E+00  0.00000000E+00  0.00000000E+00
  0.00000000E+00  0.00000000E+00  0.00000000E+00
  0.00000000E+00  0.00000000E+00  0.00000000E+00
  0.00000000E+00  0.00000000E+00  0.00000000E+00
  0.00000000E+00  0.00000000E+00  0.00000000E+00
  0.00000000E+00  0.00000000E+00  0.00000000E+00
  0.00000000E+00  0.00000000E+00  0.00000000E+00
  0.00000000E+00  0.00000000E+00  0.00000000E+00
  0.00000000E+00  0.00000000E+00  0.00000000E+00
  0.00000000E+00  0.00000000E+00  0.00000000E+00
  0.00000000E+00  0.00000000E+00  0.00000000E+00
  0.00000000E+00  0.00000000E+00  0.00000000E+00
  0.00000000E+00  0.00000000E+00  0.00000000E+00
  0.00000000E+00  0.00000000E+00  0.00000000E+00
  0.00000000E+00  0.00000000E+00  0.00000000E+00
  0.00000000E+00  0.00000000E+00  0.00000000E+00
  0.00000000E+00  0.00000000E+00  0.00000000E+00
  0.00000000E+00  0.00000000E+00  0.00000000E+00
  0.00000000E+00  0.00000000E+00  0.00000000E+00
  0.00000000E+00  0.00000000E+00  0.00000000E+00
  0.00000000E+00  0.00000000E+00  0.00000000E+00
  0.00000000E+00  0.00000000E+00  0.00000000E+00
  0.00000000E+00  0.00000000E+00  0.00000000E+00
  0.00000000E+00  0.00000000E+00  0.00000000E+00
  0.00000000E+00  0.00000000E+00  0.00000000E+00
  0.00000000E+00  0.00000000E+00  0.00000000E+00
  0.00000000E+00  0.00000000E+00  0.00000000E+00
  0.00000000E+00  0.00000000E+00  0.00000000E+00
  0.00000000E+00  0.00000000E+00  0.00000000E+00
  0.00000000E+00  0.00000000E+00  0.00000000E+00
  0.00000000E+00  0.00000000E+00  0.00000000E+00
  0.00000000E+00  0.00000000E+00  0.00000000E+00
  0.00000000E+00  0.00000000E+00  0.00000000E+00
  0.00000000E+00  0.00000000E+00  0.00000000E+00
  0.00000000E+00  0.00000000E+00  0.00000000E+00
  0.00000000E+00  0.00000000E+00  0.00000000E+00
  0.00000000E+00  0.00000000E+00  0.00000000E+00
  0.00000000E+00  0.00000000E+00  0.00000000E+00
  0.00000000E+00  0.00000000E+00  0.00000000E+00
  0.00000000E+00  0.00000000E+00  0.00000000E+00
  0.00000000E+00  0.00000000E+00  0.00000000E+00
  0.00000000E+00  0.00000000E+00  0.00000000E+00
  0.00000000E+00  0.00000000E+00  0.00000000E+00
  0.00000000E+00  0.00000000E+00  0.00000000E+00
  0.00000000E+00  0.00000000E+00  0.00000000E+00
  0.00000000E+00  0.00000000E+00  0.00000000E+00
  0.00000000E+00  0.00000000E+00  0.00000000E+00
  0.00000000E+00  0.00000000E+00  0.00000000E+00
  0.00000000E+00  0.00000000E+00  0.00000000E+00
  0.00000000E+00  0.00000000E+00  0.00000000E+00
  0.00000000E+00  0.00000000E+00  0.00000000E+00
  0.00000000E+00  0.00000000E+00  0.00000000E+00
  0.00000000E+00  0.00000000E+00  0.00000000E+00
  0.00000000E+00  0.00000000E+00  0.00000000E+00
  0.00000000E+00  0.00000000E+00  0.00000000E+00
  0.00000000E+00  0.00000000E+00  0.00000000E+00
  0.00000000E+00  0.00000000E+00  0.00000000E+00
  0.00000000E+00  0.00000000E+00  0.00000000E+00
  0.00000000E+00  0.00000000E+00  0.00000000E+00
  0.00000000E+00  0.00000000E+00  0.00000000E+00
  0.00000000E+00  0.00000000E+00  0.00000000E+00
  0.00000000E+00  0.00000000E+00  0.00000000E+00
  0.00000000E+00  0.00000000E+00  0.00000000E+00
  0.00000000E+00  0.00000000E+00  0.00000000E+00
  0.00000000E+00  0.00000000E+00  0.00000000E+00
  0.00000000E+00  0.00000000E+00  0.00000000E+00
  0.00000000E+00  0.00000000E+00  0.00000000E+00
  0.00000000E+00  0.00000000E+00  0.00000000E+00
  0.00000000E+00  0.00000000E+00  0.00000000E+00
  0.00000000E+00  0.00000000E+00  0.00000000E+00
  0.00000000E+00  0.00000000E+00  0.00000000E+00
  0.00000000E+00  0.00000000E+00  0.00000000E+00
  0.00000000E+00  0.00000000E+00  0.00000000E+00
  0.00000000E+00  0.00000000E+00  0.00000000E+00
  0.00000000E+00  0.00000000E+00  0.00000000E+00
  0.00000000E+00  0.00000000E+00  0.00000000E+00
  0.00000000E+00  0.00000000E+00  0.00000000E+00
  0.00000000E+00  0.00000000E+00  0.00000000E+00
  0.00000000E+00  0.00000000E+00  0.00000000E+00
  0.00000000E+00  0.00000000E+00  0.00000000E+00
  0.00000000E+00  0.00000000E+00  0.00000000E+00
  0.00000000E+00  0.00000000E+00  0.00000000E+00
  0.00000000E+00  0.00000000E+00  0.00000000E+00
  0.00000000E+00  0.00000000E+00  0.00000000E+00
  0.00000000E+00  0.00000000E+00  0.00000000E+00
  0.00000000E+00  0.00000000E+00  0.00000000E+00
  0.00000000E+00  0.00000000E+00  0.00000000E+00
  0.00000000E+00  0.00000000E+00  0.00000000E+00
  0.00000000E+00  0.00000000E+00  0.00000000E+00
  0.00000000E+00  0.00000000E+00  0.00000000E+00
  0.00000000E+00  0.00000000E+00  0.00000000E+00
  0.00000000E+00  0.00000000E+00  0.00000000E+00
  0.00000000E+00  0.00000000E+00  0.00000000E+00
  0.00000000E+00  0.00000000E+00  0.00000000E+00
  0.00000000E+00  0.00000000E+00  0.00000000E+00
  0.00000000E+00  0.00000000E+00  0.00000000E+00
  0.00000000E+00  0.00000000E+00  0.00000000E+00
  0.00000000E+00  0.00000000E+00  0.00000000E+00
  0.00000000E+00  0.00000000E+00  0.00000000E+00
  0.00000000E+00  0.00000000E+00  0.00000000E+00
  0.00000000E+00  0.00000000E+00  0.00000000E+00
  0.00000000E+00  0.00000000E+00  0.00000000E+00
  0.00000000E+00  0.00000000E+00  0.00000000E+00
  0.00000000E+00  0.00000000E+00  0.00000000E+00
  0.00000000E+00  0.00000000E+00  0.00000000E+00
  0.00000000E+00  0.00000000E+00  0.00000000E+00
  0.00000000E+00  0.00000000E+00  0.00000000E+00
  0.00000000E+00  0.00000000E+00  0.00000000E+00
  0.00000000E+00  0.00000000E+00  0.00000000E+00
  0.00000000E+00  0.00000000E+00  0.00000000E+00
  0.00000000E+00  0.00000000E+00  0.00000000E+00
  0.00000000E+00  0.00000000E+00  0.00000000E+00
  0.00000000E+00  0.00000000E+00  0.00000000E+00
  0.00000000E+00  0.00000000E+00  0.00000000E+00
  0.00000000E+00  0.00000000E+00  0.00000000E+00
  0.00000000E+00  0.00000000E+00  0.00000000E+00
  0.00000000E+00  0.00000000E+00  0.00000000E+00
  0.00000000E+00  0.00000000E+00  0.00000000E+00
  0.00000000E+00  0.00000000E+00  0.00000000E+00
  0.00000000E+00  0.00000000E+00  0.00000000E+00
  0.00000000E+00  0.00000000E+00  0.00000000E+00
  0.00000000E+00  0.00000000E+00  0.00000000E+00
  0.00000000E+00  0.00000000E+00  0.00000000E+00
  0.00000000E+00  0.00000000E+00  0.00000000E+00
  0.00000000E+00  0.00000000E+00  0.00000000E+00
  0.00000000E+00  0.00000000E+00  0.00000000E+00
  0.00000000E+00  0.00000000E+00  0.00000000E+00
  0.00000000E+00  0.00000000E+00  0.00000000E+00
  0.00000000E+00  0.00000000E+00  0.00000000E+00
  0.00000000E+00  0.00000000E+00  0.00000000E+00
  0.00000000E+00  0.00000000E+00  0.00000000E+00
  0.00000000E+00  0.00000000E+00  0.00000000E+00
  0.00000000E+00  0.00000000E+00  0.00000000E+00
  0.00000000E+00  0.00000000E+00  0.00000000E+00
  0.00000000E+00  0.00000000E+00  0.00000000E+00
  0.00000000E+00  0.00000000E+00  0.00000000E+00
  0.00000000E+00  0.00000000E+00  0.00000000E+00
  0.00000000E+00  0.00000000E+00  0.00000000E+00
  0.00000000E+00  0.00000000E+00  0.00000000E+00
  0.00000000E+00  0.00000000E+00  0.00000000E+00
  0.00000000E+00  0.00000000E+00  0.00000000E+00
  0.00000000E+00  0.00000000E+00  0.00000000E+00
  0.00000000E+00  0.00000000E+00  0.00000000E+00
  0.00000000E+00  0.00000000E+00  0.00000000E+00
  0.00000000E+00  0.00000000E+00  0.00000000E+00
  0.00000000E+00  0.00000000E+00  0.00000000E+00
  0.00000000E+00  0.00000000E+00  0.00000000E+00
  0.00000000E+00  0.00000000E+00  0.00000000E+00
  0.00000000E+00  0.00000000E+00  0.00000000E+00
  0.00000000E+00  0.00000000E+00  0.00000000E+00
  0.00000000E+00  0.00000000E+00  0.00000000E+00
  0.00000000E+00  0.00000000E+00  0.00000000E+00
  0.00000000E+00  0.00000000E+00  0.00000000E+00
  0.00000000E+00  0.00000000E+00  0.00000000E+00
  0.00000000E+00  0.00000000E+00  0.00000000E+00
  0.00000000E+00  0.00000000E+00  0.00000000E+00
  0.00000000E+00  0.00000000E+00  0.00000000E+00
  0.00000000E+00  0.00000000E+00  0.00000000E+00
  0.00000000E+00  0.00000000E+00  0.00000000E+00
  0.00000000E+00  0.00000000E+00  0.00000000E+00
  0.00000000E+00  0.00000000E+00  0.00000000E+00
  0.00000000E+00  0.00000000E+00  0.00000000E+00
  0.00000000E+00  0.00000000E+00  0.00000000E+00
  0.00000000E+00  0.00000000E+00  0.00000000E+00
  0.00000000E+00  0.00000000E+00  0.00000000E+00
  0.00000000E+00  0.00000000E+00  0.00000000E+00
  0.00000000E+00  0.00000000E+00  0.00000000E+00
  0.00000000E+00  0.00000000E+00  0.00000000E+00
  0.00000000E+00  0.00000000E+00  0.00000000E+00
  0.00000000E+00  0.00000000E+00  0.00000000E+00
  0.00000000E+00  0.00000000E+00  0.00000000E+00
  0.00000000E+00  0.00000000E+00  0.00000000E+00
  0.00000000E+00  0.00000000E+00  0.00000000E+00
  0.00000000E+00  0.00000000E+00  0.00000000E+00
  0.00000000E+00  0.00000000E+00  0.00000000E+00
  0.00000000E+00  0.00000000E+00  0.00000000E+00
  0.00000000E+00  0.00000000E+00  0.00000000E+00
  0.00000000E+00  0.00000000E+00  0.00000000E+00
  0.00000000E+00  0.00000000E+00  0.00000000E+00
  0.00000000E+00  0.00000000E+00  0.00000000E+00
  0.00000000E+00  0.00000000E+00  0.00000000E+00
  0.00000000E+00  0.00000000E+00  0.00000000E+00
  0.00000000E+00  0.00000000E+00  0.00000000E+00
  0.00000000E+00  0.00000000E+00  0.00000000E+00
  0.00000000E+00  0.00000000E+00  0.00000000E+00
  0.00000000E+00  0.00000000E+00  0.00000000E+00
  0.00000000E+00  0.00000000E+00  0.00000000E+00
  0.00000000E+00  0.00000000E+00  0.00000000E+00
  0.00000000E+00  0.00000000E+00  0.00000000E+00
  0.00000000E+00  0.00000000E+00  0.00000000E+00
  0.00000000E+00  0.00000000E+00  0.00000000E+00
  0.00000000E+00  0.00000000E+00  0.00000000E+00
  0.00000000E+00  0.00000000E+00  0.00000000E+00
  0.00000000E+00  0.00000000E+00  0.00000000E+00
  0.00000000E+00  0.00000000E+00  0.00000000E+00
  0.00000000E+00  0.00000000E+00  0.00000000E+00
  0.00000000E+00  0.00000000E+00  0.00000000E+00
  0.00000000E+00  0.00000000E+00  0.00000000E+00
  0.00000000E+00  0.00000000E+00  0.00000000E+00
  0.00000000E+00  0.00000000E+00  0.00000000E+00
  0.00000000E+00  0.00000000E+00  0.00000000E+00
  0.00000000E+00  0.00000000E+00  0.00000000E+00
  0.00000000E+00  0.00000000E+00  0.00000000E+00
  0.00000000E+00  0.00000000E+00  0.00000000E+00
  0.00000000E+00  0.00000000E+00  0.00000000E+00
  0.00000000E+00  0.00000000E+00  0.00000000E+00
  0.00000000E+00  0.00000000E+00  0.00000000E+00
  0.00000000E+00  0.00000000E+00  0.00000000E+00
  0.00000000E+00  0.00000000E+00  0.00000000E+00
  0.00000000E+00  0.00000000E+00  0.00000000E+00
  0.00000000E+00  0.00000000E+00  0.00000000E+00
  0.00000000E+00  0.00000000E+00  0.00000000E+00
  0.00000000E+00  0.00000000E+00  0.00000000E+00
  0.00000000E+00  0.00000000E+00  0.00000000E+00
