 O Ti 
 1.0000000000000000
    13.0160748915413169    0.0000000000000000    0.0000000000000000
     0.0000000000000000   11.8443707738385253    0.0000000000000000
     0.0000000000000000    0.0000000000000000   27.5655356285642625
   O  Ti
 160  80
Selective dynamics
Direct
  0.0977323101498797  0.1250000000000000  0.2638109836218361   F   F   F
  0.4022676898501203  0.1250000000000000  0.2638109836218361   F   F   F
  0.2500000000000000  0.0000000000000000  0.2176631022465101   F   F   F
  0.2500000000000000  0.0000000000000000  0.3099588649971620   F   F   F
  0.3477323101498797  0.1250000000000000  0.3818576186204026   F   F   F
  0.1522676898501203  0.1250000000000000  0.3818576186204026   F   F   F
  0.0000000000000000  0.0000000000000000  0.3357097372450912   F   F   F
  0.0000000000000000  0.0000000000000000  0.4280054999957288   F   F   F
  0.0977323101498797  0.1250000000000000  0.4999042536189837   F   F   F
  0.4022676898501203  0.1250000000000000  0.4999042536189837   F   F   F
  0.2500000000000000  0.0000000000000000  0.4537563722436579   F   F   F
  0.2500000000000000  0.0000000000000000  0.5460521349943096   F   F   F
  0.3499605291145020  0.1250000121970782  0.6184926731523041   T   T   T
  0.1500417087196456  0.1250000203028500  0.6184928702921175   T   T   T
  0.0000006479079549  0.9999999942022531  0.5723503341044054   T   T   T
  0.0000007263748976  0.0000000308734093  0.6648023017753664   T   T   T
  0.0936352348644687  0.1249999508623026  0.7420150423873587   T   T   T
  0.4063657135038983  0.1249999589418341  0.7420151228820003   T   T   T
  0.2500005756684493  0.4999999900765960  0.6898880395999206   T   T   T
  0.2500002357844248  0.0000000846242964  0.7823368977534900   T   T   T
  0.0977323101498797  0.3750000000000000  0.2638109836218361   F   F   F
  0.4022676898501203  0.3750000000000000  0.2638109836218361   F   F   F
  0.2500000000000000  0.2500000000000000  0.2176631022465101   F   F   F
  0.2500000000000000  0.2500000000000000  0.3099588649971620   F   F   F
  0.3477323101498797  0.3750000000000000  0.3818576186204026   F   F   F
  0.1522676898501203  0.3750000000000000  0.3818576186204026   F   F   F
  0.0000000000000000  0.2500000000000000  0.3357097372450912   F   F   F
  0.0000000000000000  0.2500000000000000  0.4280054999957288   F   F   F
  0.0977323101498797  0.3750000000000000  0.4999042536189837   F   F   F
  0.4022676898501203  0.3750000000000000  0.4999042536189837   F   F   F
  0.2500000000000000  0.2500000000000000  0.4537563722436579   F   F   F
  0.2500000000000000  0.2500000000000000  0.5460521349943096   F   F   F
  0.3499605231504143  0.3749999626974475  0.6184926794062087   T   T   T
  0.1500417129587476  0.3749999763264428  0.6184928773917940   T   T   T
  0.0000006594552799  0.2500000187478288  0.5723503194481543   T   T   T
  0.0000007413255520  0.2499999633234132  0.6648022673106346   T   T   T
  0.0936352400005605  0.3750000458987326  0.7420149996927817   T   T   T
  0.4063656645372458  0.3750000649534611  0.7420150749438646   T   T   T
  0.2500005815060203  0.2499999542700798  0.6898879901306411   T   T   T
  0.2500002067803934  0.2499999169806490  0.7823367991630252   T   T   T
  0.0977323101498797  0.6250000000000000  0.2638109836218361   F   F   F
  0.4022676898501203  0.6250000000000000  0.2638109836218361   F   F   F
  0.2500000000000000  0.5000000000000000  0.2176631022465101   F   F   F
  0.2500000000000000  0.5000000000000000  0.3099588649971620   F   F   F
  0.3477323101498797  0.6250000000000000  0.3818576186204026   F   F   F
  0.1522676898501203  0.6250000000000000  0.3818576186204026   F   F   F
  0.0000000000000000  0.5000000000000000  0.3357097372450912   F   F   F
  0.0000000000000000  0.5000000000000000  0.4280054999957288   F   F   F
  0.0977323101498797  0.6250000000000000  0.4999042536189837   F   F   F
  0.4022676898501203  0.6250000000000000  0.4999042536189837   F   F   F
  0.2500000000000000  0.5000000000000000  0.4537563722436579   F   F   F
  0.2500000000000000  0.5000000000000000  0.5460521349943096   F   F   F
  0.3499605291145020  0.6250000121970782  0.6184926731523041   T   T   T
  0.1500417087196456  0.6250000203028501  0.6184928702921175   T   T   T
  0.0000006479079549  0.4999999942022531  0.5723503341044054   T   T   T
  0.0000007263748976  0.5000000308734094  0.6648023017753664   T   T   T
  0.0936352348644687  0.6249999508623026  0.7420150423873587   T   T   T
  0.4063657135038983  0.6249999589418341  0.7420151228820003   T   T   T
  0.2500005756684493  0.9999999900765960  0.6898880395999206   T   T   T
  0.2500002357844248  0.5000000846242965  0.7823368977534900   T   T   T
  0.0977323101498797  0.8750000000000001  0.2638109836218361   F   F   F
  0.4022676898501203  0.8750000000000001  0.2638109836218361   F   F   F
  0.2500000000000000  0.7500000000000000  0.2176631022465101   F   F   F
  0.2500000000000000  0.7500000000000000  0.3099588649971620   F   F   F
  0.3477323101498797  0.8750000000000001  0.3818576186204026   F   F   F
  0.1522676898501203  0.8750000000000001  0.3818576186204026   F   F   F
  0.0000000000000000  0.7500000000000000  0.3357097372450912   F   F   F
  0.0000000000000000  0.7500000000000000  0.4280054999957288   F   F   F
  0.0977323101498797  0.8750000000000001  0.4999042536189837   F   F   F
  0.4022676898501203  0.8750000000000001  0.4999042536189837   F   F   F
  0.2500000000000000  0.7500000000000000  0.4537563722436579   F   F   F
  0.2500000000000000  0.7500000000000000  0.5460521349943096   F   F   F
  0.3499605231504143  0.8749999626974474  0.6184926794062087   T   T   T
  0.1500417129587476  0.8749999763264429  0.6184928773917940   T   T   T
  0.0000006594552799  0.7500000187478288  0.5723503194481543   T   T   T
  0.0000007413255520  0.7499999633234132  0.6648022673106346   T   T   T
  0.0936352400005605  0.8750000458987326  0.7420149996927817   T   T   T
  0.4063656645372458  0.8750000649534611  0.7420150749438646   T   T   T
  0.2500005815060203  0.7499999542700798  0.6898879901306411   T   T   T
  0.2500002067803934  0.7499999169806491  0.7823367991630252   T   T   T
  0.5977323101498797  0.1250000000000000  0.2638109836218361   F   F   F
  0.9022676898501204  0.1250000000000000  0.2638109836218361   F   F   F
  0.7500000000000001  0.0000000000000000  0.2176631022465101   F   F   F
  0.7500000000000001  0.0000000000000000  0.3099588649971620   F   F   F
  0.8477323101498797  0.1250000000000000  0.3818576186204026   F   F   F
  0.6522676898501203  0.1250000000000000  0.3818576186204026   F   F   F
  0.5000000000000000  0.0000000000000000  0.3357097372450912   F   F   F
  0.5000000000000000  0.0000000000000000  0.4280054999957288   F   F   F
  0.5977323101498797  0.1250000000000000  0.4999042536189837   F   F   F
  0.9022676898501204  0.1250000000000000  0.4999042536189837   F   F   F
  0.7500000000000001  0.0000000000000000  0.4537563722436579   F   F   F
  0.7500000000000001  0.0000000000000000  0.5460521349943096   F   F   F
  0.8499605291145020  0.1250000121970782  0.6184926731523041   T   T   T
  0.6500417087196456  0.1250000203028500  0.6184928702921175   T   T   T
  0.5000006479079548  0.9999999942022531  0.5723503341044054   T   T   T
  0.5000007263748976  0.0000000308734093  0.6648023017753664   T   T   T
  0.5936352348644688  0.1249999508623026  0.7420150423873587   T   T   T
  0.9063657135038983  0.1249999589418341  0.7420151228820003   T   T   T
  0.7500005756684494  0.4999999900765960  0.6898880395999206   T   T   T
  0.7500002357844248  0.0000000846242964  0.7823368977534900   T   T   T
  0.5977323101498797  0.3750000000000000  0.2638109836218361   F   F   F
  0.9022676898501204  0.3750000000000000  0.2638109836218361   F   F   F
  0.7500000000000001  0.2500000000000000  0.2176631022465101   F   F   F
  0.7500000000000001  0.2500000000000000  0.3099588649971620   F   F   F
  0.8477323101498797  0.3750000000000000  0.3818576186204026   F   F   F
  0.6522676898501203  0.3750000000000000  0.3818576186204026   F   F   F
  0.5000000000000000  0.2500000000000000  0.3357097372450912   F   F   F
  0.5000000000000000  0.2500000000000000  0.4280054999957288   F   F   F
  0.5977323101498797  0.3750000000000000  0.4999042536189837   F   F   F
  0.9022676898501204  0.3750000000000000  0.4999042536189837   F   F   F
  0.7500000000000001  0.2500000000000000  0.4537563722436579   F   F   F
  0.7500000000000001  0.2500000000000000  0.5460521349943096   F   F   F
  0.8499605231504144  0.3749999626974475  0.6184926794062087   T   T   T
  0.6500417129587476  0.3749999763264428  0.6184928773917940   T   T   T
  0.5000006594552799  0.2500000187478288  0.5723503194481543   T   T   T
  0.5000007413255521  0.2499999633234132  0.6648022673106346   T   T   T
  0.5936352400005606  0.3750000458987326  0.7420149996927817   T   T   T
  0.9063656645372458  0.3750000649534611  0.7420150749438646   T   T   T
  0.7500005815060203  0.2499999542700798  0.6898879901306411   T   T   T
  0.7500002067803934  0.2499999169806490  0.7823367991630252   T   T   T
  0.5977323101498797  0.6250000000000000  0.2638109836218361   F   F   F
  0.9022676898501204  0.6250000000000000  0.2638109836218361   F   F   F
  0.7500000000000001  0.5000000000000000  0.2176631022465101   F   F   F
  0.7500000000000001  0.5000000000000000  0.3099588649971620   F   F   F
  0.8477323101498797  0.6250000000000000  0.3818576186204026   F   F   F
  0.6522676898501203  0.6250000000000000  0.3818576186204026   F   F   F
  0.5000000000000000  0.5000000000000000  0.3357097372450912   F   F   F
  0.5000000000000000  0.5000000000000000  0.4280054999957288   F   F   F
  0.5977323101498797  0.6250000000000000  0.4999042536189837   F   F   F
  0.9022676898501204  0.6250000000000000  0.4999042536189837   F   F   F
  0.7500000000000001  0.5000000000000000  0.4537563722436579   F   F   F
  0.7500000000000001  0.5000000000000000  0.5460521349943096   F   F   F
  0.8499605291145020  0.6250000121970782  0.6184926731523041   T   T   T
  0.6500417087196456  0.6250000203028501  0.6184928702921175   T   T   T
  0.5000006479079548  0.4999999942022531  0.5723503341044054   T   T   T
  0.5000007263748976  0.5000000308734094  0.6648023017753664   T   T   T
  0.5936352348644688  0.6249999508623026  0.7420150423873587   T   T   T
  0.9063657135038983  0.6249999589418341  0.7420151228820003   T   T   T
  0.7500005756684494  0.9999999900765960  0.6898880395999206   T   T   T
  0.7500002357844248  0.5000000846242965  0.7823368977534900   T   T   T
  0.5977323101498797  0.8750000000000001  0.2638109836218361   F   F   F
  0.9022676898501204  0.8750000000000001  0.2638109836218361   F   F   F
  0.7500000000000001  0.7500000000000000  0.2176631022465101   F   F   F
  0.7500000000000001  0.7500000000000000  0.3099588649971620   F   F   F
  0.8477323101498797  0.8750000000000001  0.3818576186204026   F   F   F
  0.6522676898501203  0.8750000000000001  0.3818576186204026   F   F   F
  0.5000000000000000  0.7500000000000000  0.3357097372450912   F   F   F
  0.5000000000000000  0.7500000000000000  0.4280054999957288   F   F   F
  0.5977323101498797  0.8750000000000001  0.4999042536189837   F   F   F
  0.9022676898501204  0.8750000000000001  0.4999042536189837   F   F   F
  0.7500000000000001  0.7500000000000000  0.4537563722436579   F   F   F
  0.7500000000000001  0.7500000000000000  0.5460521349943096   F   F   F
  0.8499605231504144  0.8749999626974474  0.6184926794062087   T   T   T
  0.6500417129587476  0.8749999763264429  0.6184928773917940   T   T   T
  0.5000006594552799  0.7500000187478288  0.5723503194481543   T   T   T
  0.5000007413255521  0.7499999633234132  0.6648022673106346   T   T   T
  0.5936352400005606  0.8750000458987326  0.7420149996927817   T   T   T
  0.9063656645372458  0.8750000649534611  0.7420150749438646   T   T   T
  0.7500005815060203  0.7499999542700798  0.6898879901306411   T   T   T
  0.7500002067803934  0.7499999169806491  0.7823367991630252   T   T   T
  0.2500000000000000  0.1250000000000000  0.2638109836218361   F   F   F
  0.0000000000000000  0.0000000000000000  0.2638109836218361   F   F   F
  0.0000000000000000  0.1250000000000000  0.3818576186204026   F   F   F
  0.2500000000000000  0.0000000000000000  0.3818576186204026   F   F   F
  0.2500000000000000  0.1250000000000000  0.4999042536189837   F   F   F
  0.0000000000000000  0.0000000000000000  0.4999042536189837   F   F   F
  0.4999950501122327  0.1249999636722289  0.6154650462649153   T   T   T
  0.2499962250722868  0.0000000246682895  0.6222499411877895   T   T   T
  0.2500006483489770  0.1250004838868474  0.7435592815092201   T   T   T
  0.0000005080000396  0.9999999900344908  0.7305634934841044   T   T   T
  0.2500000000000000  0.3750000000000000  0.2638109836218361   F   F   F
  0.0000000000000000  0.2500000000000000  0.2638109836218361   F   F   F
  0.0000000000000000  0.3750000000000000  0.3818576186204026   F   F   F
  0.2500000000000000  0.2500000000000000  0.3818576186204026   F   F   F
  0.2500000000000000  0.3750000000000000  0.4999042536189837   F   F   F
  0.0000000000000000  0.2500000000000000  0.4999042536189837   F   F   F
  0.4999950350690420  0.3750000461047014  0.6154650618369665   T   T   T
  0.2499962358398076  0.2500000407556915  0.6222500100176396   T   T   T
  0.2500006599529661  0.3749995480084337  0.7435594512540384   T   T   T
  0.0000004636441615  0.2500000415310546  0.7305634814313893   T   T   T
  0.2500000000000000  0.6250000000000000  0.2638109836218361   F   F   F
  0.0000000000000000  0.5000000000000000  0.2638109836218361   F   F   F
  0.0000000000000000  0.6250000000000000  0.3818576186204026   F   F   F
  0.2500000000000000  0.5000000000000000  0.3818576186204026   F   F   F
  0.2500000000000000  0.6250000000000000  0.4999042536189837   F   F   F
  0.0000000000000000  0.5000000000000000  0.4999042536189837   F   F   F
  0.4999950501122327  0.6249999636722289  0.6154650462649153   T   T   T
  0.2499962250722868  0.5000000246682895  0.6222499411877895   T   T   T
  0.2500006483489770  0.6250004838868475  0.7435592815092201   T   T   T
  0.0000005080000396  0.4999999900344908  0.7305634934841044   T   T   T
  0.2500000000000000  0.8750000000000001  0.2638109836218361   F   F   F
  0.0000000000000000  0.7500000000000000  0.2638109836218361   F   F   F
  0.0000000000000000  0.8750000000000001  0.3818576186204026   F   F   F
  0.2500000000000000  0.7500000000000000  0.3818576186204026   F   F   F
  0.2500000000000000  0.8750000000000001  0.4999042536189837   F   F   F
  0.0000000000000000  0.7500000000000000  0.4999042536189837   F   F   F
  0.4999950350690420  0.8750000461047015  0.6154650618369665   T   T   T
  0.2499962358398076  0.7500000407556915  0.6222500100176396   T   T   T
  0.2500006599529661  0.8749995480084336  0.7435594512540384   T   T   T
  0.0000004636441615  0.7500000415310547  0.7305634814313893   T   T   T
  0.7500000000000001  0.1250000000000000  0.2638109836218361   F   F   F
  0.5000000000000000  0.0000000000000000  0.2638109836218361   F   F   F
  0.5000000000000000  0.1250000000000000  0.3818576186204026   F   F   F
  0.7500000000000001  0.0000000000000000  0.3818576186204026   F   F   F
  0.7500000000000001  0.1250000000000000  0.4999042536189837   F   F   F
  0.5000000000000000  0.0000000000000000  0.4999042536189837   F   F   F
  0.9999950501122327  0.1249999636722289  0.6154650462649153   T   T   T
  0.7499962250722868  0.0000000246682895  0.6222499411877895   T   T   T
  0.7500006483489771  0.1250004838868474  0.7435592815092201   T   T   T
  0.5000005080000396  0.9999999900344908  0.7305634934841044   T   T   T
  0.7500000000000001  0.3750000000000000  0.2638109836218361   F   F   F
  0.5000000000000000  0.2500000000000000  0.2638109836218361   F   F   F
  0.5000000000000000  0.3750000000000000  0.3818576186204026   F   F   F
  0.7500000000000001  0.2500000000000000  0.3818576186204026   F   F   F
  0.7500000000000001  0.3750000000000000  0.4999042536189837   F   F   F
  0.5000000000000000  0.2500000000000000  0.4999042536189837   F   F   F
  0.9999950350690421  0.3750000461047014  0.6154650618369665   T   T   T
  0.7499962358398076  0.2500000407556915  0.6222500100176396   T   T   T
  0.7500006599529661  0.3749995480084337  0.7435594512540384   T   T   T
  0.5000004636441615  0.2500000415310546  0.7305634814313893   T   T   T
  0.7500000000000001  0.6250000000000000  0.2638109836218361   F   F   F
  0.5000000000000000  0.5000000000000000  0.2638109836218361   F   F   F
  0.5000000000000000  0.6250000000000000  0.3818576186204026   F   F   F
  0.7500000000000001  0.5000000000000000  0.3818576186204026   F   F   F
  0.7500000000000001  0.6250000000000000  0.4999042536189837   F   F   F
  0.5000000000000000  0.5000000000000000  0.4999042536189837   F   F   F
  0.9999950501122327  0.6249999636722289  0.6154650462649153   T   T   T
  0.7499962250722868  0.5000000246682895  0.6222499411877895   T   T   T
  0.7500006483489771  0.6250004838868475  0.7435592815092201   T   T   T
  0.5000005080000396  0.4999999900344908  0.7305634934841044   T   T   T
  0.7500000000000001  0.8750000000000001  0.2638109836218361   F   F   F
  0.5000000000000000  0.7500000000000000  0.2638109836218361   F   F   F
  0.5000000000000000  0.8750000000000001  0.3818576186204026   F   F   F
  0.7500000000000001  0.7500000000000000  0.3818576186204026   F   F   F
  0.7500000000000001  0.8750000000000001  0.4999042536189837   F   F   F
  0.5000000000000000  0.7500000000000000  0.4999042536189837   F   F   F
  0.9999950350690421  0.8750000461047015  0.6154650618369665   T   T   T
  0.7499962358398076  0.7500000407556915  0.6222500100176396   T   T   T
  0.7500006599529661  0.8749995480084336  0.7435594512540384   T   T   T
  0.5000004636441615  0.7500000415310547  0.7305634814313893   T   T   T
