Ti  O                                   
   1.00000000000000     
    12.8810259953660466    0.0000000000000000    0.0000000000000000
     0.0000000000000000   11.6899362151574362    0.0000000000000000
     0.0000000000000000    0.0000000000000000   12.8810259953660466
   Ti   O 
    64   127
Direct
  0.2495145856238707  0.1250125495206902  0.1101881285096695
  0.9999992999546450  0.0000007290452331  0.1097854306402226
  0.5000026395543884  0.1196434418013510  0.3623086145544363
  0.2505691415421296  0.0000028373694079  0.3601102337472284
  0.2496805908174551  0.1250409730139950  0.6102186183480924
  0.9999980856812769  0.9999959212060929  0.6101916235949219
  0.5000074081249934  0.1234746362754748  0.8562994542872815
  0.2501173210748533  0.0000098652780025  0.8602998359879592
  0.2496679916246194  0.3751494207333366  0.1101958682642774
  0.0000049026146485  0.2500905981915125  0.1100944133078059
  0.4999969780099747  0.3589194461205167  0.3437631416592382
  0.2493477906450607  0.2496755135963014  0.3602058325162005
  0.2493971187985125  0.3751355573214070  0.6091917502430348
  0.9999991893553997  0.2500042368003150  0.6100706514081580
  0.4999959969156151  0.3713967826883007  0.8643337447596480
  0.2499196048321011  0.2500494812592891  0.8600555223973174
  0.2496650800722904  0.6248551098626294  0.1101918944660270
  0.9999975846292415  0.5000007882778377  0.1100257656129742
  0.5000052411584903  0.6410828868230567  0.3437630416201145
  0.2513044662712645  0.4999977998293517  0.3601505488671606
  0.2493861618564139  0.6248430602544772  0.6091659401300475
  0.0000027756270740  0.4999971584270142  0.6102313266974022
  0.4999911211440704  0.6286059694823365  0.8643341901041381
  0.2503370251575987  0.5000066825705005  0.8597591541507867
  0.2495091093392716  0.8749869880212557  0.1101833709667517
  0.9999988971488634  0.7499089650536916  0.1100843411395971
  0.5000054789295305  0.8803551456383829  0.3623072390389623
  0.2493528619567940  0.7503227479393502  0.3602017325732092
  0.2496867033836452  0.8749541719365013  0.6102244268533994
  0.0000025268446251  0.7499939637090449  0.6100741706515649
  0.5000001879152194  0.8765289430846579  0.8562934966220439
  0.2499142142782631  0.7499577009219323  0.8600454533891053
  0.7504885837464954  0.1250127034033355  0.1101865600644700
  0.5000003708586362  0.9999944711030722  0.1079610758525575
  0.9999980361315579  0.1249652740394183  0.3600977991089920
  0.7494335423415706  0.9999982860194692  0.3601102170768868
  0.7503192511568102  0.1250438298100534  0.6102217887901418
  0.4999928284270183  0.0000030990126731  0.6108795302711911
  0.9999998889365855  0.1251277391643271  0.8599330081732433
  0.7498826428199052  0.9999993427148368  0.8603055586829456
  0.7503336834661596  0.3751433930655068  0.1101980079639517
  0.5000026311919825  0.2485626240299794  0.1035902520171774
  0.9999992996022371  0.3751181684850664  0.3600382922481558
  0.7506513992285591  0.2496753712856545  0.3602066853374595
  0.7506153920888750  0.3751545905129632  0.6091724051354248
  0.5000119211136962  0.2508409850361701  0.6066894634364957
  0.9999978943753476  0.3750590645276120  0.8600930366926036
  0.7500867431346876  0.2500505996015434  0.8600492428058715
  0.7503302142326334  0.6248587346958558  0.1101981754869712
  0.4999973615232989  0.4999963642442040  0.1103263895463371
  0.0000032377741803  0.6248717626553315  0.3600440367887501
  0.7486864987059505  0.4999981163682605  0.3601503745314929
  0.7506154078240499  0.6248481638820351  0.6091748513351547
  0.4999957310046526  0.5000019436522791  0.6294742389280827
  0.9999959202226094  0.6249381960249636  0.8600875879807575
  0.7496438245563724  0.5000006282338418  0.8597803342316013
  0.7504914579317443  0.8749886597395218  0.1101870243926086
  0.4999987681912472  0.7514227998815102  0.1035881479758700
  0.0000176190709453  0.8750186662237311  0.3600941819644987
  0.7506950118076716  0.7503215107058026  0.3602099682737432
  0.7503160836862151  0.8749565853322778  0.6102212565282485
  0.5000132323358386  0.7491586214851154  0.6066877681965437
  0.9999979237184320  0.8748775130448507  0.8599289388751714
  0.7500840519435243  0.7499505378733247  0.8600491008645506
  0.0983097866667464  0.1250629417545710  0.1103395445383057
  0.4019418213975570  0.1249283545551805  0.1083931757006695
  0.2500539097378294  0.9999982577289757  0.0118018021146611
  0.2505608501139136  0.9999994304308331  0.2083668838166446
  0.3486873359659555  0.1248002420082344  0.3605694833323128
  0.1522402072835973  0.1255508581488485  0.3603466440722869
  0.0000005695801875  0.9999986584817577  0.2622412035714632
  0.4999981917739404  0.9999994053714758  0.4599650051527320
  0.0983896322195790  0.1251511536079803  0.6104399834208394
  0.4024608270810788  0.1262460548825430  0.6083976199877554
  0.2503090579064065  0.0000033456497590  0.5120809312134398
  0.2512734579913740  0.0000019542965859  0.7080715228718759
  0.3488055523808598  0.1252326557740844  0.8592881580557972
  0.1521810497503822  0.1252354495845083  0.8596030533672305
  0.9999997558878988  0.0000010863618272  0.7619631333842634
  0.5000001418746223  0.9999996991106954  0.9560371131658627
  0.0983179958706728  0.3749291612052730  0.1104180598791515
  0.4024835785731824  0.3746737352967671  0.1123783693781348
  0.2504949489874235  0.2502344736586437  0.0120147410324449
  0.2513266870742044  0.2500043850913585  0.2087719087155122
  0.3517212502545632  0.3765289121214082  0.3625653014055956
  0.1528446914801407  0.3749179451188382  0.3596632477646935
  0.9999992875474248  0.2499758378856640  0.2621473705922384
  0.5000008617350673  0.2516288676126308  0.4545498994055635
  0.0983009084634787  0.3750058365287430  0.6104469204086342
  0.4032299432160684  0.3796855404089854  0.6030124005036512
  0.2500829492033958  0.2500727513049270  0.5118280159509325
  0.2521629725866248  0.2510850915762504  0.7078663911798557
  0.3491187180683184  0.3752062108217160  0.8611511394792259
  0.1521844006619446  0.3751051266789247  0.8597875473068157
  0.9999987140186235  0.2500831034265474  0.7620294544234909
  0.4999987220446727  0.2480704334717601  0.9571755227699157
  0.0983170008013659  0.6250717479288497  0.1104158457261804
  0.4024819559466266  0.6253286409662664  0.1123786407601912
  0.2508393542540759  0.5000008160738361  0.0123282534790476
  0.2506501966180821  0.5000010229150504  0.2087345147912671
  0.3517224958852410  0.6234676877576959  0.3625642156930340
  0.1528464686312532  0.6250808287085405  0.3596638060102180
  0.9999975269805006  0.4999988205754349  0.2621170404993833
  0.0982997866973889  0.6249955811997197  0.6104439149338106
  0.4032309461447952  0.6203135414159675  0.6030114782447953
  0.2476675637720334  0.4999932026926004  0.5115487024055909
  0.2522215549460611  0.5000016936736387  0.7081259751412290
  0.3491151357713278  0.6248021825234318  0.8611476936523417
  0.1521808634845101  0.6248966251111767  0.8597865566133578
  0.9999993896200650  0.5000007035536669  0.7620125094827088
  0.5000007426868791  0.5000032127769742  0.9611484859015604
  0.0983090078121975  0.8749364196848006  0.1103380258867261
  0.4019404447825394  0.8750690655868922  0.1083916710611561
  0.2504905899316654  0.7497678553407141  0.0120125743072563
  0.2513266261419176  0.7499966428345672  0.2087682298082854
  0.3486870600304073  0.8752026628373883  0.3605693776820615
  0.1522436090974679  0.8744485626271015  0.3603444817487329
  0.0000016417397930  0.7500180931340310  0.2621467114557134
  0.5000008420936410  0.7483718605871701  0.4545489114712851
  0.0983898764055127  0.8748501332983025  0.6104381476422773
  0.4024615527512552  0.8737551392507967  0.6083970957395266
  0.2500845671463665  0.7499296842608771  0.5118237023724674
  0.2521591753506343  0.7489122457543900  0.7078610927599627
  0.3488030802105797  0.8747705626809008  0.8592881138770991
  0.1521776615714501  0.8747728891137072  0.8596013286319817
  0.9999992964218549  0.7499169408894559  0.7620278409518946
  0.4999989497360104  0.7519315379402798  0.9571750312850966
  0.5980596055336562  0.1249262270567684  0.1083927661142638
  0.9016924640165911  0.1250641916491801  0.1103400364779716
  0.7499453596836219  0.9999988912204216  0.0118027595167831
  0.7494379412805472  0.0000020899727105  0.2083641236177982
  0.8477591674813283  0.1255517418783185  0.3603483681868056
  0.6513119091525255  0.1247957789949865  0.3605679905299155
  0.4999915086374855  0.0000009194464141  0.2609061286219969
  0.0000023889316907  0.9999957347594233  0.4584392829953003
  0.5975399268565624  0.1262405185706328  0.6083951060652169
  0.9016099179119337  0.1251512725105215  0.6104350449000790
  0.7496895736902047  0.0000001717797105  0.5120806370267132
  0.7487254922597515  0.0000005618199452  0.7080707691412869
  0.8478186820767561  0.1252331695024367  0.8596030533100532
  0.6511951277015768  0.1252315759542100  0.8592920068107901
  0.4999989575025836  0.0000023058949665  0.7593616291807450
  0.9999981604061290  0.9999995761534564  0.9583181055307293
  0.5975176447851354  0.3746760757080807  0.1123789911634887
  0.9016814929164241  0.3749270343429885  0.1104179114667900
  0.7495051377387369  0.2502372730462454  0.0120138602555073
  0.7486721238501488  0.2500058240742433  0.2087695291253624
  0.8471521346183906  0.3749190436751135  0.3596641557754552
  0.6482755472370698  0.3765325975440064  0.3625622629071898
  0.4999980913251321  0.2421224520134402  0.2570471075448495
  0.9999988354644458  0.2502579417688935  0.4583882598607332
  0.5967684470350676  0.3796911123626217  0.6030070464102195
  0.9017004912871442  0.3750062468438173  0.6104442712647469
  0.7499115127437648  0.2500714088918201  0.5118245086496955
  0.7478341121946386  0.2510881575827710  0.7078618472532412
  0.8478126609452303  0.3751092771046913  0.8597880625920524
  0.6508764366733431  0.3752022571694908  0.8611526406748453
  0.5000062095777338  0.2529194904507435  0.7599590682042816
  0.9999993717774842  0.2499567849561615  0.9583510353162836
  0.5975163485706929  0.6253270736136258  0.1123774275640628
  0.9016791415678895  0.6250716697678484  0.1104158650313707
  0.7491551628175657  0.5000011959772124  0.0123303200796130
  0.7493489759207392  0.5000010665991752  0.2087352258715711
  0.8471570172819014  0.6250783471002492  0.3596649040609989
  0.6482797542290086  0.6234687052124386  0.3625620968334218
  0.4999964020654488  0.4999992800455999  0.2710393720156858
  0.9999992766911063  0.4999983155045200  0.4582907522047535
  0.5967678773956635  0.6203094720949736  0.6030090610326440
  0.9016991627423678  0.6249966849245396  0.6104420421553058
  0.7523315482835145  0.5000007122824570  0.5115454008428415
  0.7477733634907722  0.5000003781941302  0.7081229386827559
  0.8478126062804989  0.6248922304326854  0.8597893909946848
  0.6508759306729530  0.6247988574159820  0.8611527250691609
  0.4999991664963730  0.5000002065781359  0.7668890521779872
  0.9999992318301025  0.5000004079096314  0.9584487909683688
  0.5980593506358574  0.8750689851292250  0.1083945587324848
  0.9016900099057779  0.8749373997429615  0.1103409032523999
  0.7495048691005834  0.7497667044271168  0.0120148422547075
  0.7486720525967741  0.7499952521577598  0.2087695112880326
  0.8477641963149054  0.8744502046564762  0.3603438312515479
  0.6513170304111142  0.8752008883818121  0.3605675183633608
  0.4999989331938934  0.7578767000797626  0.2570453199883360
  0.0000020343533507  0.7497411006310983  0.4583878038667990
  0.5975406880755827  0.8737605665172339  0.6083960361530174
  0.9016100292623577  0.8748491145894661  0.6104368350727540
  0.7499125640253652  0.7499298232399170  0.5118240403079142
  0.7478346825538509  0.7489135126856539  0.7078624183915281
  0.8478184690596819  0.8747672546386909  0.8596031097928289
  0.6511950522784815  0.8747705165706847  0.8592903485226770
  0.5000053489597747  0.7470830947419245  0.7599586901177844
  0.9999990147504292  0.7500445918994458  0.9583484602840500
 
  0.00000000E+00  0.00000000E+00  0.00000000E+00
  0.00000000E+00  0.00000000E+00  0.00000000E+00
  0.00000000E+00  0.00000000E+00  0.00000000E+00
  0.00000000E+00  0.00000000E+00  0.00000000E+00
  0.00000000E+00  0.00000000E+00  0.00000000E+00
  0.00000000E+00  0.00000000E+00  0.00000000E+00
  0.00000000E+00  0.00000000E+00  0.00000000E+00
  0.00000000E+00  0.00000000E+00  0.00000000E+00
  0.00000000E+00  0.00000000E+00  0.00000000E+00
  0.00000000E+00  0.00000000E+00  0.00000000E+00
  0.00000000E+00  0.00000000E+00  0.00000000E+00
  0.00000000E+00  0.00000000E+00  0.00000000E+00
  0.00000000E+00  0.00000000E+00  0.00000000E+00
  0.00000000E+00  0.00000000E+00  0.00000000E+00
  0.00000000E+00  0.00000000E+00  0.00000000E+00
  0.00000000E+00  0.00000000E+00  0.00000000E+00
  0.00000000E+00  0.00000000E+00  0.00000000E+00
  0.00000000E+00  0.00000000E+00  0.00000000E+00
  0.00000000E+00  0.00000000E+00  0.00000000E+00
  0.00000000E+00  0.00000000E+00  0.00000000E+00
  0.00000000E+00  0.00000000E+00  0.00000000E+00
  0.00000000E+00  0.00000000E+00  0.00000000E+00
  0.00000000E+00  0.00000000E+00  0.00000000E+00
  0.00000000E+00  0.00000000E+00  0.00000000E+00
  0.00000000E+00  0.00000000E+00  0.00000000E+00
  0.00000000E+00  0.00000000E+00  0.00000000E+00
  0.00000000E+00  0.00000000E+00  0.00000000E+00
  0.00000000E+00  0.00000000E+00  0.00000000E+00
  0.00000000E+00  0.00000000E+00  0.00000000E+00
  0.00000000E+00  0.00000000E+00  0.00000000E+00
  0.00000000E+00  0.00000000E+00  0.00000000E+00
  0.00000000E+00  0.00000000E+00  0.00000000E+00
  0.00000000E+00  0.00000000E+00  0.00000000E+00
  0.00000000E+00  0.00000000E+00  0.00000000E+00
  0.00000000E+00  0.00000000E+00  0.00000000E+00
  0.00000000E+00  0.00000000E+00  0.00000000E+00
  0.00000000E+00  0.00000000E+00  0.00000000E+00
  0.00000000E+00  0.00000000E+00  0.00000000E+00
  0.00000000E+00  0.00000000E+00  0.00000000E+00
  0.00000000E+00  0.00000000E+00  0.00000000E+00
  0.00000000E+00  0.00000000E+00  0.00000000E+00
  0.00000000E+00  0.00000000E+00  0.00000000E+00
  0.00000000E+00  0.00000000E+00  0.00000000E+00
  0.00000000E+00  0.00000000E+00  0.00000000E+00
  0.00000000E+00  0.00000000E+00  0.00000000E+00
  0.00000000E+00  0.00000000E+00  0.00000000E+00
  0.00000000E+00  0.00000000E+00  0.00000000E+00
  0.00000000E+00  0.00000000E+00  0.00000000E+00
  0.00000000E+00  0.00000000E+00  0.00000000E+00
  0.00000000E+00  0.00000000E+00  0.00000000E+00
  0.00000000E+00  0.00000000E+00  0.00000000E+00
  0.00000000E+00  0.00000000E+00  0.00000000E+00
  0.00000000E+00  0.00000000E+00  0.00000000E+00
  0.00000000E+00  0.00000000E+00  0.00000000E+00
  0.00000000E+00  0.00000000E+00  0.00000000E+00
  0.00000000E+00  0.00000000E+00  0.00000000E+00
  0.00000000E+00  0.00000000E+00  0.00000000E+00
  0.00000000E+00  0.00000000E+00  0.00000000E+00
  0.00000000E+00  0.00000000E+00  0.00000000E+00
  0.00000000E+00  0.00000000E+00  0.00000000E+00
  0.00000000E+00  0.00000000E+00  0.00000000E+00
  0.00000000E+00  0.00000000E+00  0.00000000E+00
  0.00000000E+00  0.00000000E+00  0.00000000E+00
  0.00000000E+00  0.00000000E+00  0.00000000E+00
  0.00000000E+00  0.00000000E+00  0.00000000E+00
  0.00000000E+00  0.00000000E+00  0.00000000E+00
  0.00000000E+00  0.00000000E+00  0.00000000E+00
  0.00000000E+00  0.00000000E+00  0.00000000E+00
  0.00000000E+00  0.00000000E+00  0.00000000E+00
  0.00000000E+00  0.00000000E+00  0.00000000E+00
  0.00000000E+00  0.00000000E+00  0.00000000E+00
  0.00000000E+00  0.00000000E+00  0.00000000E+00
  0.00000000E+00  0.00000000E+00  0.00000000E+00
  0.00000000E+00  0.00000000E+00  0.00000000E+00
  0.00000000E+00  0.00000000E+00  0.00000000E+00
  0.00000000E+00  0.00000000E+00  0.00000000E+00
  0.00000000E+00  0.00000000E+00  0.00000000E+00
  0.00000000E+00  0.00000000E+00  0.00000000E+00
  0.00000000E+00  0.00000000E+00  0.00000000E+00
  0.00000000E+00  0.00000000E+00  0.00000000E+00
  0.00000000E+00  0.00000000E+00  0.00000000E+00
  0.00000000E+00  0.00000000E+00  0.00000000E+00
  0.00000000E+00  0.00000000E+00  0.00000000E+00
  0.00000000E+00  0.00000000E+00  0.00000000E+00
  0.00000000E+00  0.00000000E+00  0.00000000E+00
  0.00000000E+00  0.00000000E+00  0.00000000E+00
  0.00000000E+00  0.00000000E+00  0.00000000E+00
  0.00000000E+00  0.00000000E+00  0.00000000E+00
  0.00000000E+00  0.00000000E+00  0.00000000E+00
  0.00000000E+00  0.00000000E+00  0.00000000E+00
  0.00000000E+00  0.00000000E+00  0.00000000E+00
  0.00000000E+00  0.00000000E+00  0.00000000E+00
  0.00000000E+00  0.00000000E+00  0.00000000E+00
  0.00000000E+00  0.00000000E+00  0.00000000E+00
  0.00000000E+00  0.00000000E+00  0.00000000E+00
  0.00000000E+00  0.00000000E+00  0.00000000E+00
  0.00000000E+00  0.00000000E+00  0.00000000E+00
  0.00000000E+00  0.00000000E+00  0.00000000E+00
  0.00000000E+00  0.00000000E+00  0.00000000E+00
  0.00000000E+00  0.00000000E+00  0.00000000E+00
  0.00000000E+00  0.00000000E+00  0.00000000E+00
  0.00000000E+00  0.00000000E+00  0.00000000E+00
  0.00000000E+00  0.00000000E+00  0.00000000E+00
  0.00000000E+00  0.00000000E+00  0.00000000E+00
  0.00000000E+00  0.00000000E+00  0.00000000E+00
  0.00000000E+00  0.00000000E+00  0.00000000E+00
  0.00000000E+00  0.00000000E+00  0.00000000E+00
  0.00000000E+00  0.00000000E+00  0.00000000E+00
  0.00000000E+00  0.00000000E+00  0.00000000E+00
  0.00000000E+00  0.00000000E+00  0.00000000E+00
  0.00000000E+00  0.00000000E+00  0.00000000E+00
  0.00000000E+00  0.00000000E+00  0.00000000E+00
  0.00000000E+00  0.00000000E+00  0.00000000E+00
  0.00000000E+00  0.00000000E+00  0.00000000E+00
  0.00000000E+00  0.00000000E+00  0.00000000E+00
  0.00000000E+00  0.00000000E+00  0.00000000E+00
  0.00000000E+00  0.00000000E+00  0.00000000E+00
  0.00000000E+00  0.00000000E+00  0.00000000E+00
  0.00000000E+00  0.00000000E+00  0.00000000E+00
  0.00000000E+00  0.00000000E+00  0.00000000E+00
  0.00000000E+00  0.00000000E+00  0.00000000E+00
  0.00000000E+00  0.00000000E+00  0.00000000E+00
  0.00000000E+00  0.00000000E+00  0.00000000E+00
  0.00000000E+00  0.00000000E+00  0.00000000E+00
  0.00000000E+00  0.00000000E+00  0.00000000E+00
  0.00000000E+00  0.00000000E+00  0.00000000E+00
  0.00000000E+00  0.00000000E+00  0.00000000E+00
  0.00000000E+00  0.00000000E+00  0.00000000E+00
  0.00000000E+00  0.00000000E+00  0.00000000E+00
  0.00000000E+00  0.00000000E+00  0.00000000E+00
  0.00000000E+00  0.00000000E+00  0.00000000E+00
  0.00000000E+00  0.00000000E+00  0.00000000E+00
  0.00000000E+00  0.00000000E+00  0.00000000E+00
  0.00000000E+00  0.00000000E+00  0.00000000E+00
  0.00000000E+00  0.00000000E+00  0.00000000E+00
  0.00000000E+00  0.00000000E+00  0.00000000E+00
  0.00000000E+00  0.00000000E+00  0.00000000E+00
  0.00000000E+00  0.00000000E+00  0.00000000E+00
  0.00000000E+00  0.00000000E+00  0.00000000E+00
  0.00000000E+00  0.00000000E+00  0.00000000E+00
  0.00000000E+00  0.00000000E+00  0.00000000E+00
  0.00000000E+00  0.00000000E+00  0.00000000E+00
  0.00000000E+00  0.00000000E+00  0.00000000E+00
  0.00000000E+00  0.00000000E+00  0.00000000E+00
  0.00000000E+00  0.00000000E+00  0.00000000E+00
  0.00000000E+00  0.00000000E+00  0.00000000E+00
  0.00000000E+00  0.00000000E+00  0.00000000E+00
  0.00000000E+00  0.00000000E+00  0.00000000E+00
  0.00000000E+00  0.00000000E+00  0.00000000E+00
  0.00000000E+00  0.00000000E+00  0.00000000E+00
  0.00000000E+00  0.00000000E+00  0.00000000E+00
  0.00000000E+00  0.00000000E+00  0.00000000E+00
  0.00000000E+00  0.00000000E+00  0.00000000E+00
  0.00000000E+00  0.00000000E+00  0.00000000E+00
  0.00000000E+00  0.00000000E+00  0.00000000E+00
  0.00000000E+00  0.00000000E+00  0.00000000E+00
  0.00000000E+00  0.00000000E+00  0.00000000E+00
  0.00000000E+00  0.00000000E+00  0.00000000E+00
  0.00000000E+00  0.00000000E+00  0.00000000E+00
  0.00000000E+00  0.00000000E+00  0.00000000E+00
  0.00000000E+00  0.00000000E+00  0.00000000E+00
  0.00000000E+00  0.00000000E+00  0.00000000E+00
  0.00000000E+00  0.00000000E+00  0.00000000E+00
  0.00000000E+00  0.00000000E+00  0.00000000E+00
  0.00000000E+00  0.00000000E+00  0.00000000E+00
  0.00000000E+00  0.00000000E+00  0.00000000E+00
  0.00000000E+00  0.00000000E+00  0.00000000E+00
  0.00000000E+00  0.00000000E+00  0.00000000E+00
  0.00000000E+00  0.00000000E+00  0.00000000E+00
  0.00000000E+00  0.00000000E+00  0.00000000E+00
  0.00000000E+00  0.00000000E+00  0.00000000E+00
  0.00000000E+00  0.00000000E+00  0.00000000E+00
  0.00000000E+00  0.00000000E+00  0.00000000E+00
  0.00000000E+00  0.00000000E+00  0.00000000E+00
  0.00000000E+00  0.00000000E+00  0.00000000E+00
  0.00000000E+00  0.00000000E+00  0.00000000E+00
  0.00000000E+00  0.00000000E+00  0.00000000E+00
  0.00000000E+00  0.00000000E+00  0.00000000E+00
  0.00000000E+00  0.00000000E+00  0.00000000E+00
  0.00000000E+00  0.00000000E+00  0.00000000E+00
  0.00000000E+00  0.00000000E+00  0.00000000E+00
  0.00000000E+00  0.00000000E+00  0.00000000E+00
  0.00000000E+00  0.00000000E+00  0.00000000E+00
  0.00000000E+00  0.00000000E+00  0.00000000E+00
  0.00000000E+00  0.00000000E+00  0.00000000E+00
  0.00000000E+00  0.00000000E+00  0.00000000E+00
  0.00000000E+00  0.00000000E+00  0.00000000E+00
  0.00000000E+00  0.00000000E+00  0.00000000E+00
  0.00000000E+00  0.00000000E+00  0.00000000E+00
  0.00000000E+00  0.00000000E+00  0.00000000E+00
  0.00000000E+00  0.00000000E+00  0.00000000E+00
