Ti  O                                   
   1.00000000000000     
    12.8810259953660466    0.0000000000000000    0.0000000000000000
     0.0000000000000000   11.6899362151574362    0.0000000000000000
     0.0000000000000000    0.0000000000000000   12.8810259953660466
   Ti   O 
    64   127
Direct
  0.2495145856238734  0.1250125495206920  0.1101881285096721
 -0.0000007000453564  0.0000007290452364  0.1097854306402253
  0.5000026395543895  0.1196434418013508  0.3623086145544355
  0.2505691415421267  0.0000028373694086  0.3601102337472277
  0.2496805908174583  0.1250409730139936  0.6102186183480934
 -0.0000019143187213 -0.0000040787939040  0.6101916235949202
  0.5000074081249958  0.1234746362754763  0.8562994542872847
  0.2501173210748520  0.0000098652780040  0.8602998359879562
  0.2496679916246203  0.3751494207333398  0.1101958682642784
  0.0000049026146458  0.2500905981915111  0.1100944133078027
  0.4999969780099779  0.3589194461205181  0.3437631416592409
  0.2493477906450594  0.2496755135962989  0.3602058325161976
  0.2493971187985144  0.3751355573214046  0.6091917502430378
 -0.0000008106445970  0.2500042368003140  0.6100706514081589
  0.4999959969156138  0.3713967826882976  0.8643337447596500
  0.2499196048320997  0.2500494812592874  0.8600555223973152
  0.2496650800722915  0.6248551098626284  0.1101918944660272
 -0.0000024153707558  0.5000007882778372  0.1100257656129722
  0.5000052411584881  0.6410828868230593  0.3437630416201171
  0.2513044662712652  0.4999977998293536  0.3601505488671590
  0.2493861618564130  0.6248430602544786  0.6091659401300470
  0.0000027756270729  0.4999971584270125  0.6102313266973989
  0.4999911211440728  0.6286059694823339  0.8643341901041387
  0.2503370251575964  0.5000066825704994  0.8597591541507894
  0.2495091093392729  0.8749869880212585  0.1101833709667511
 -0.0000011028511383  0.7499089650536895  0.1100843411396002
  0.5000054789295290  0.8803551456383824  0.3623072390389597
  0.2493528619567921  0.7503227479393502  0.3602017325732091
  0.2496867033836457  0.8749541719364984  0.6102244268534009
  0.0000025268446252  0.7499939637090416  0.6100741706515621
  0.5000001879152164  0.8765289430846601  0.8562934966220448
  0.2499142142782599  0.7499577009219345  0.8600454533891081
  0.7504885837464921  0.1250127034033340  0.1101865600644682
  0.5000003708586341 -0.0000055288969248  0.1079610758525596
 -0.0000019638684411  0.1249652740394182  0.3600977991089912
  0.7494335423415736 -0.0000017139805339  0.3601102170768887
  0.7503192511568115  0.1250438298100531  0.6102217887901404
  0.4999928284270161  0.0000030990126758  0.6108795302711917
 -0.0000001110634133  0.1251277391643262  0.8599330081732430
  0.7498826428199050 -0.0000006572851605  0.8603055586829422
  0.7503336834661596  0.3751433930655080  0.1101980079639505
  0.5000026311919793  0.2485626240299814  0.1035902520171767
 -0.0000007003977604  0.3751181684850684  0.3600382922481580
  0.7506513992285556  0.2496753712856542  0.3602066853374584
  0.7506153920888774  0.3751545905129623  0.6091724051354281
  0.5000119211136964  0.2508409850361712  0.6066894634364944
 -0.0000021056246499  0.3750590645276095  0.8600930366926071
  0.7500867431346849  0.2500505996015458  0.8600492428058738
  0.7503302142326359  0.6248587346958571  0.1101981754869703
  0.4999973615232975  0.4999963642442049  0.1103263895463374
  0.0000032377741772  0.6248717626553292  0.3600440367887519
  0.7486864987059508  0.4999981163682612  0.3601503745314955
  0.7506154078240518  0.6248481638820336  0.6091748513351515
  0.4999957310046536  0.5000019436522795  0.6294742389280840
 -0.0000040797773871  0.6249381960249663  0.8600875879807607
  0.7496438245563740  0.5000006282338384  0.8597803342316046
  0.7504914579317445  0.8749886597395189  0.1101870243926079
  0.4999987681912499  0.7514227998815087  0.1035881479758710
  0.0000176190709433  0.8750186662237318  0.3600941819644999
  0.7506950118076690  0.7503215107058058  0.3602099682737425
  0.7503160836862135  0.8749565853322765  0.6102212565282465
  0.5000132323358365  0.7491586214851119  0.6066877681965445
 -0.0000020762815697  0.8748775130448505  0.8599289388751727
  0.7500840519435246  0.7499505378733269  0.8600491008645472
  0.0983097866667492  0.1250629417545709  0.1103395445383091
  0.4019418213975535  0.1249283545551777  0.1083931757006665
  0.2500539097378264 -0.0000017422710273  0.0118018021146586
  0.2505608501139143 -0.0000005695691700  0.2083668838166464
  0.3486873359659522  0.1248002420082360  0.3605694833323124
  0.1522402072835953  0.1255508581488457  0.3603466440722893
  0.0000005695801889 -0.0000013415182420  0.2622412035714602
  0.4999981917739431 -0.0000005946285268  0.4599650051527336
  0.0983896322195773  0.1251511536079806  0.6104399834208399
  0.4024608270810818  0.1262460548825443  0.6083976199877574
  0.2503090579064064  0.0000033456497578  0.5120809312134381
  0.2512734579913753  0.0000019542965858  0.7080715228718771
  0.3488055523808578  0.1252326557740871  0.8592881580557962
  0.1521810497503809  0.1252354495845058  0.8596030533672275
 -0.0000002441121045  0.0000010863618279  0.7619631333842649
  0.5000001418746244 -0.0000003008893070  0.9560371131658608
  0.0983179958706743  0.3749291612052720  0.1104180598791530
  0.4024835785731825  0.3746737352967658  0.1123783693781341
  0.2504949489874250  0.2502344736586403  0.0120147410324467
  0.2513266870742073  0.2500043850913571  0.2087719087155101
  0.3517212502545625  0.3765289121214057  0.3625653014055928
  0.1528446914801436  0.3749179451188405  0.3596632477646914
 -0.0000007124525763  0.2499758378856614  0.2621473705922384
  0.5000008617350694  0.2516288676126307  0.4545498994055600
  0.0983009084634777  0.3750058365287453  0.6104469204086377
  0.4032299432160650  0.3796855404089873  0.6030124005036502
  0.2500829492033959  0.2500727513049277  0.5118280159509337
  0.2521629725866266  0.2510850915762522  0.7078663911798588
  0.3491187180683154  0.3752062108217178  0.8611511394792267
  0.1521844006619459  0.3751051266789259  0.8597875473068159
 -0.0000012859813736  0.2500831034265500  0.7620294544234942
  0.4999987220446717  0.2480704334717604  0.9571755227699187
  0.0983170008013641  0.6250717479288498  0.1104158457261833
  0.4024819559466296  0.6253286409662646  0.1123786407601889
  0.2508393542540733  0.5000008160738376  0.0123282534790445
  0.2506501966180817  0.5000010229150509  0.2087345147912682
  0.3517224958852391  0.6234676877576983  0.3625642156930343
  0.1528464686312566  0.6250808287085434  0.3596638060102175
 -0.0000024730195024  0.4999988205754341  0.2621170404993867
  0.0982997866973860  0.6249955811997189  0.6104439149338112
  0.4032309461447957  0.6203135414159703  0.6030114782447934
  0.2476675637720359  0.4999932026925986  0.5115487024055890
  0.2522215549460633  0.5000016936736372  0.7081259751412299
  0.3491151357713300  0.6248021825234292  0.8611476936523434
  0.1521808634845083  0.6248966251111793  0.8597865566133608
 -0.0000006103799348  0.5000007035536658  0.7620125094827097
  0.5000007426868815  0.5000032127769708  0.9611484859015580
  0.0983090078121982  0.8749364196847992  0.1103380258867253
  0.4019404447825426  0.8750690655868929  0.1083916710611553
  0.2504905899316622  0.7497678553407143  0.0120125743072588
  0.2513266261419193  0.7499966428345642  0.2087682298082887
  0.3486870600304102  0.8752026628373865  0.3605693776820648
  0.1522436090974714  0.8744485626270999  0.3603444817487320
  0.0000016417397917  0.7500180931340309  0.2621467114557101
  0.5000008420936412  0.7483718605871719  0.4545489114712864
  0.0983898764055121  0.8748501332983035  0.6104381476422770
  0.4024615527512568  0.8737551392507956  0.6083970957395274
  0.2500845671463693  0.7499296842608757  0.5118237023724677
  0.2521591753506332  0.7489122457543910  0.7078610927599606
  0.3488030802105769  0.8747705626809037  0.8592881138771025
  0.1521776615714512  0.8747728891137085  0.8596013286319835
 -0.0000007035781481  0.7499169408894584  0.7620278409518952
  0.4999989497360118  0.7519315379402769  0.9571750312850943
  0.5980596055336544  0.1249262270567718  0.1083927661142633
  0.9016924640165896  0.1250641916491834  0.1103400364779704
  0.7499453596836201 -0.0000011087795786  0.0118027595167821
  0.7494379412805444  0.0000020899727095  0.2083641236178009
  0.8477591674813315  0.1255517418783156  0.3603483681868064
  0.6513119091525272  0.1247957789949857  0.3605679905299187
  0.4999915086374847  0.0000009194464161  0.2609061286219944
  0.0000023889316887 -0.0000042652405795  0.4584392829952975
  0.5975399268565600  0.1262405185706355  0.6083951060652164
  0.9016099179119335  0.1251512725105219  0.6104350449000818
  0.7496895736902029  0.0000001717797101  0.5120806370267098
  0.7487254922597510  0.0000005618199461  0.7080707691412904
  0.8478186820767555  0.1252331695024347  0.8596030533100534
  0.6511951277015746  0.1252315759542126  0.8592920068107930
  0.4999989575025838  0.0000023058949696  0.7593616291807437
 -0.0000018395938714 -0.0000004238465428  0.9583181055307258
  0.5975176447851323  0.3746760757080800  0.1123789911634906
  0.9016814929164271  0.3749270343429876  0.1104179114667894
  0.7495051377387402  0.2502372730462429  0.0120138602555060
  0.7486721238501516  0.2500058240742439  0.2087695291253591
  0.8471521346183880  0.3749190436751162  0.3596641557754565
  0.6482755472370665  0.3765325975440063  0.3625622629071920
  0.4999980913251297  0.2421224520134391  0.2570471075448518
 -0.0000011645355543  0.2502579417688954  0.4583882598607302
  0.5967684470350657  0.3796911123626192  0.6030070464102225
  0.9017004912871440  0.3750062468438163  0.6104442712647460
  0.7499115127437672  0.2500714088918168  0.5118245086496975
  0.7478341121946401  0.2510881575827684  0.7078618472532423
  0.8478126609452328  0.3751092771046907  0.8597880625920498
  0.6508764366733417  0.3752022571694907  0.8611526406748456
  0.5000062095777316  0.2529194904507413  0.7599590682042785
 -0.0000006282225142  0.2499567849561581  0.9583510353162851
  0.5975163485706922  0.6253270736136249  0.1123774275640661
  0.9016791415678865  0.6250716697678486  0.1104158650313675
  0.7491551628175659  0.5000011959772107  0.0123303200796134
  0.7493489759207417  0.5000010665991783  0.2087352258715695
  0.8471570172818986  0.6250783471002516  0.3596649040609966
  0.6482797542290110  0.6234687052124381  0.3625620968334240
  0.4999964020654507  0.4999992800456028  0.2710393720156837
 -0.0000007233088960  0.4999983155045193  0.4582907522047525
  0.5967678773956606  0.6203094720949740  0.6030090610326440
  0.9016991627423663  0.6249966849245371  0.6104420421553090
  0.7523315482835152  0.5000007122824537  0.5115454008428439
  0.7477733634907713  0.5000003781941310  0.7081229386827590
  0.8478126062804980  0.6248922304326832  0.8597893909946878
  0.6508759306729537  0.6247988574159795  0.8611527250691589
  0.4999991664963736  0.5000002065781366  0.7668890521779845
 -0.0000007681698948  0.5000004079096323  0.9584487909683668
  0.5980593506358591  0.8750689851292266  0.1083945587324855
  0.9016900099057749  0.8749373997429584  0.1103409032524005
  0.7495048691005863  0.7497667044271165  0.0120148422547097
  0.7486720525967749  0.7499952521577592  0.2087695112880349
  0.8477641963149045  0.8744502046564772  0.3603438312515498
  0.6513170304111127  0.8752008883818101  0.3605675183633599
  0.4999989331938928  0.7578767000797659  0.2570453199883369
  0.0000020343533474  0.7497411006310978  0.4583878038667972
  0.5975406880755842  0.8737605665172319  0.6083960361530152
  0.9016100292623604  0.8748491145894652  0.6104368350727533
  0.7499125640253625  0.7499298232399182  0.5118240403079132
  0.7478346825538491  0.7489135126856561  0.7078624183915262
  0.8478184690596823  0.8747672546386875  0.8596031097928266
  0.6511950522784794  0.8747705165706845  0.8592903485226792
  0.5000053489597733  0.7470830947419267  0.7599586901177867
 -0.0000009852495690  0.7500445918994463  0.9583484602840479
 
  0.00000000E+00  0.00000000E+00  0.00000000E+00
  0.00000000E+00  0.00000000E+00  0.00000000E+00
  0.00000000E+00  0.00000000E+00  0.00000000E+00
  0.00000000E+00  0.00000000E+00  0.00000000E+00
  0.00000000E+00  0.00000000E+00  0.00000000E+00
  0.00000000E+00  0.00000000E+00  0.00000000E+00
  0.00000000E+00  0.00000000E+00  0.00000000E+00
  0.00000000E+00  0.00000000E+00  0.00000000E+00
  0.00000000E+00  0.00000000E+00  0.00000000E+00
  0.00000000E+00  0.00000000E+00  0.00000000E+00
  0.00000000E+00  0.00000000E+00  0.00000000E+00
  0.00000000E+00  0.00000000E+00  0.00000000E+00
  0.00000000E+00  0.00000000E+00  0.00000000E+00
  0.00000000E+00  0.00000000E+00  0.00000000E+00
  0.00000000E+00  0.00000000E+00  0.00000000E+00
  0.00000000E+00  0.00000000E+00  0.00000000E+00
  0.00000000E+00  0.00000000E+00  0.00000000E+00
  0.00000000E+00  0.00000000E+00  0.00000000E+00
  0.00000000E+00  0.00000000E+00  0.00000000E+00
  0.00000000E+00  0.00000000E+00  0.00000000E+00
  0.00000000E+00  0.00000000E+00  0.00000000E+00
  0.00000000E+00  0.00000000E+00  0.00000000E+00
  0.00000000E+00  0.00000000E+00  0.00000000E+00
  0.00000000E+00  0.00000000E+00  0.00000000E+00
  0.00000000E+00  0.00000000E+00  0.00000000E+00
  0.00000000E+00  0.00000000E+00  0.00000000E+00
  0.00000000E+00  0.00000000E+00  0.00000000E+00
  0.00000000E+00  0.00000000E+00  0.00000000E+00
  0.00000000E+00  0.00000000E+00  0.00000000E+00
  0.00000000E+00  0.00000000E+00  0.00000000E+00
  0.00000000E+00  0.00000000E+00  0.00000000E+00
  0.00000000E+00  0.00000000E+00  0.00000000E+00
  0.00000000E+00  0.00000000E+00  0.00000000E+00
  0.00000000E+00  0.00000000E+00  0.00000000E+00
  0.00000000E+00  0.00000000E+00  0.00000000E+00
  0.00000000E+00  0.00000000E+00  0.00000000E+00
  0.00000000E+00  0.00000000E+00  0.00000000E+00
  0.00000000E+00  0.00000000E+00  0.00000000E+00
  0.00000000E+00  0.00000000E+00  0.00000000E+00
  0.00000000E+00  0.00000000E+00  0.00000000E+00
  0.00000000E+00  0.00000000E+00  0.00000000E+00
  0.00000000E+00  0.00000000E+00  0.00000000E+00
  0.00000000E+00  0.00000000E+00  0.00000000E+00
  0.00000000E+00  0.00000000E+00  0.00000000E+00
  0.00000000E+00  0.00000000E+00  0.00000000E+00
  0.00000000E+00  0.00000000E+00  0.00000000E+00
  0.00000000E+00  0.00000000E+00  0.00000000E+00
  0.00000000E+00  0.00000000E+00  0.00000000E+00
  0.00000000E+00  0.00000000E+00  0.00000000E+00
  0.00000000E+00  0.00000000E+00  0.00000000E+00
  0.00000000E+00  0.00000000E+00  0.00000000E+00
  0.00000000E+00  0.00000000E+00  0.00000000E+00
  0.00000000E+00  0.00000000E+00  0.00000000E+00
  0.00000000E+00  0.00000000E+00  0.00000000E+00
  0.00000000E+00  0.00000000E+00  0.00000000E+00
  0.00000000E+00  0.00000000E+00  0.00000000E+00
  0.00000000E+00  0.00000000E+00  0.00000000E+00
  0.00000000E+00  0.00000000E+00  0.00000000E+00
  0.00000000E+00  0.00000000E+00  0.00000000E+00
  0.00000000E+00  0.00000000E+00  0.00000000E+00
  0.00000000E+00  0.00000000E+00  0.00000000E+00
  0.00000000E+00  0.00000000E+00  0.00000000E+00
  0.00000000E+00  0.00000000E+00  0.00000000E+00
  0.00000000E+00  0.00000000E+00  0.00000000E+00
  0.00000000E+00  0.00000000E+00  0.00000000E+00
  0.00000000E+00  0.00000000E+00  0.00000000E+00
  0.00000000E+00  0.00000000E+00  0.00000000E+00
  0.00000000E+00  0.00000000E+00  0.00000000E+00
  0.00000000E+00  0.00000000E+00  0.00000000E+00
  0.00000000E+00  0.00000000E+00  0.00000000E+00
  0.00000000E+00  0.00000000E+00  0.00000000E+00
  0.00000000E+00  0.00000000E+00  0.00000000E+00
  0.00000000E+00  0.00000000E+00  0.00000000E+00
  0.00000000E+00  0.00000000E+00  0.00000000E+00
  0.00000000E+00  0.00000000E+00  0.00000000E+00
  0.00000000E+00  0.00000000E+00  0.00000000E+00
  0.00000000E+00  0.00000000E+00  0.00000000E+00
  0.00000000E+00  0.00000000E+00  0.00000000E+00
  0.00000000E+00  0.00000000E+00  0.00000000E+00
  0.00000000E+00  0.00000000E+00  0.00000000E+00
  0.00000000E+00  0.00000000E+00  0.00000000E+00
  0.00000000E+00  0.00000000E+00  0.00000000E+00
  0.00000000E+00  0.00000000E+00  0.00000000E+00
  0.00000000E+00  0.00000000E+00  0.00000000E+00
  0.00000000E+00  0.00000000E+00  0.00000000E+00
  0.00000000E+00  0.00000000E+00  0.00000000E+00
  0.00000000E+00  0.00000000E+00  0.00000000E+00
  0.00000000E+00  0.00000000E+00  0.00000000E+00
  0.00000000E+00  0.00000000E+00  0.00000000E+00
  0.00000000E+00  0.00000000E+00  0.00000000E+00
  0.00000000E+00  0.00000000E+00  0.00000000E+00
  0.00000000E+00  0.00000000E+00  0.00000000E+00
  0.00000000E+00  0.00000000E+00  0.00000000E+00
  0.00000000E+00  0.00000000E+00  0.00000000E+00
  0.00000000E+00  0.00000000E+00  0.00000000E+00
  0.00000000E+00  0.00000000E+00  0.00000000E+00
  0.00000000E+00  0.00000000E+00  0.00000000E+00
  0.00000000E+00  0.00000000E+00  0.00000000E+00
  0.00000000E+00  0.00000000E+00  0.00000000E+00
  0.00000000E+00  0.00000000E+00  0.00000000E+00
  0.00000000E+00  0.00000000E+00  0.00000000E+00
  0.00000000E+00  0.00000000E+00  0.00000000E+00
  0.00000000E+00  0.00000000E+00  0.00000000E+00
  0.00000000E+00  0.00000000E+00  0.00000000E+00
  0.00000000E+00  0.00000000E+00  0.00000000E+00
  0.00000000E+00  0.00000000E+00  0.00000000E+00
  0.00000000E+00  0.00000000E+00  0.00000000E+00
  0.00000000E+00  0.00000000E+00  0.00000000E+00
  0.00000000E+00  0.00000000E+00  0.00000000E+00
  0.00000000E+00  0.00000000E+00  0.00000000E+00
  0.00000000E+00  0.00000000E+00  0.00000000E+00
  0.00000000E+00  0.00000000E+00  0.00000000E+00
  0.00000000E+00  0.00000000E+00  0.00000000E+00
  0.00000000E+00  0.00000000E+00  0.00000000E+00
  0.00000000E+00  0.00000000E+00  0.00000000E+00
  0.00000000E+00  0.00000000E+00  0.00000000E+00
  0.00000000E+00  0.00000000E+00  0.00000000E+00
  0.00000000E+00  0.00000000E+00  0.00000000E+00
  0.00000000E+00  0.00000000E+00  0.00000000E+00
  0.00000000E+00  0.00000000E+00  0.00000000E+00
  0.00000000E+00  0.00000000E+00  0.00000000E+00
  0.00000000E+00  0.00000000E+00  0.00000000E+00
  0.00000000E+00  0.00000000E+00  0.00000000E+00
  0.00000000E+00  0.00000000E+00  0.00000000E+00
  0.00000000E+00  0.00000000E+00  0.00000000E+00
  0.00000000E+00  0.00000000E+00  0.00000000E+00
  0.00000000E+00  0.00000000E+00  0.00000000E+00
  0.00000000E+00  0.00000000E+00  0.00000000E+00
  0.00000000E+00  0.00000000E+00  0.00000000E+00
  0.00000000E+00  0.00000000E+00  0.00000000E+00
  0.00000000E+00  0.00000000E+00  0.00000000E+00
  0.00000000E+00  0.00000000E+00  0.00000000E+00
  0.00000000E+00  0.00000000E+00  0.00000000E+00
  0.00000000E+00  0.00000000E+00  0.00000000E+00
  0.00000000E+00  0.00000000E+00  0.00000000E+00
  0.00000000E+00  0.00000000E+00  0.00000000E+00
  0.00000000E+00  0.00000000E+00  0.00000000E+00
  0.00000000E+00  0.00000000E+00  0.00000000E+00
  0.00000000E+00  0.00000000E+00  0.00000000E+00
  0.00000000E+00  0.00000000E+00  0.00000000E+00
  0.00000000E+00  0.00000000E+00  0.00000000E+00
  0.00000000E+00  0.00000000E+00  0.00000000E+00
  0.00000000E+00  0.00000000E+00  0.00000000E+00
  0.00000000E+00  0.00000000E+00  0.00000000E+00
  0.00000000E+00  0.00000000E+00  0.00000000E+00
  0.00000000E+00  0.00000000E+00  0.00000000E+00
  0.00000000E+00  0.00000000E+00  0.00000000E+00
  0.00000000E+00  0.00000000E+00  0.00000000E+00
  0.00000000E+00  0.00000000E+00  0.00000000E+00
  0.00000000E+00  0.00000000E+00  0.00000000E+00
  0.00000000E+00  0.00000000E+00  0.00000000E+00
  0.00000000E+00  0.00000000E+00  0.00000000E+00
  0.00000000E+00  0.00000000E+00  0.00000000E+00
  0.00000000E+00  0.00000000E+00  0.00000000E+00
  0.00000000E+00  0.00000000E+00  0.00000000E+00
  0.00000000E+00  0.00000000E+00  0.00000000E+00
  0.00000000E+00  0.00000000E+00  0.00000000E+00
  0.00000000E+00  0.00000000E+00  0.00000000E+00
  0.00000000E+00  0.00000000E+00  0.00000000E+00
  0.00000000E+00  0.00000000E+00  0.00000000E+00
  0.00000000E+00  0.00000000E+00  0.00000000E+00
  0.00000000E+00  0.00000000E+00  0.00000000E+00
  0.00000000E+00  0.00000000E+00  0.00000000E+00
  0.00000000E+00  0.00000000E+00  0.00000000E+00
  0.00000000E+00  0.00000000E+00  0.00000000E+00
  0.00000000E+00  0.00000000E+00  0.00000000E+00
  0.00000000E+00  0.00000000E+00  0.00000000E+00
  0.00000000E+00  0.00000000E+00  0.00000000E+00
  0.00000000E+00  0.00000000E+00  0.00000000E+00
  0.00000000E+00  0.00000000E+00  0.00000000E+00
  0.00000000E+00  0.00000000E+00  0.00000000E+00
  0.00000000E+00  0.00000000E+00  0.00000000E+00
  0.00000000E+00  0.00000000E+00  0.00000000E+00
  0.00000000E+00  0.00000000E+00  0.00000000E+00
  0.00000000E+00  0.00000000E+00  0.00000000E+00
  0.00000000E+00  0.00000000E+00  0.00000000E+00
  0.00000000E+00  0.00000000E+00  0.00000000E+00
  0.00000000E+00  0.00000000E+00  0.00000000E+00
  0.00000000E+00  0.00000000E+00  0.00000000E+00
  0.00000000E+00  0.00000000E+00  0.00000000E+00
  0.00000000E+00  0.00000000E+00  0.00000000E+00
  0.00000000E+00  0.00000000E+00  0.00000000E+00
  0.00000000E+00  0.00000000E+00  0.00000000E+00
  0.00000000E+00  0.00000000E+00  0.00000000E+00
  0.00000000E+00  0.00000000E+00  0.00000000E+00
  0.00000000E+00  0.00000000E+00  0.00000000E+00
  0.00000000E+00  0.00000000E+00  0.00000000E+00
  0.00000000E+00  0.00000000E+00  0.00000000E+00
  0.00000000E+00  0.00000000E+00  0.00000000E+00
  0.00000000E+00  0.00000000E+00  0.00000000E+00
  0.00000000E+00  0.00000000E+00  0.00000000E+00
