SYSTEM=TiO2-rutile
ISMEAR=0
SIGMA=0.05
EDIFF=1E-5
ALGO=ALL
ISYM=0
ISTART=1

IBRION = -1
NSW = 0
EDIFFG=-0.01

ENCUT=500
PREC=Normal
LASPH=.TRUE.
LREAL=Auto
ISPIN=1
NELM=18
NCORE=4
KPAR=2


LHFCALC = .TRUE.
LWAVE=.TRUE.
LCHARG=.FALSE.

LORBIT=11
