Ti  O                                   
   1.00000000000000     
    13.1414240571821228    0.0000000000000000    0.0000000000000000
     0.0000000000000000   11.8675837719843074    0.0000000000000000
     0.0000000000000000    0.0000000000000000   30.7042271454677689
   Ti   O 
    80   159
Selective dynamics
Direct
  0.5000000000000000  0.1250000000000000  0.2859997583570220   F   F   F
  0.7500000000000000  0.0000000000000000  0.2859997583570220   F   F   F
  0.2500000000000000  0.1250000000000000  0.3929998791785110   F   F   F
  0.5000000000000000  0.0000000000000000  0.3929998791785110   F   F   F
  0.5000000000000000  0.1250000000000000  0.5000000000000000   F   F   F
  0.7500000000000000  0.0000000000000000  0.5000000000000000   F   F   F
  0.7590843312189079  0.1249244389399280  0.6047259914967924   T   T   T
  0.5064265499826774  0.9999828334495291  0.6113361305154896   T   T   T
  0.4988833992582400  0.1249050807067960  0.7210768976524591   T   T   T
  0.7489903885849998  0.9999692291677391  0.7089066626753251   T   T   T
  0.5000000000000000  0.3750000000000000  0.2859997583570220   F   F   F
  0.7500000000000000  0.2500000000000000  0.2859997583570220   F   F   F
  0.2500000000000000  0.3750000000000000  0.3929998791785110   F   F   F
  0.5000000000000000  0.2500000000000000  0.3929998791785110   F   F   F
  0.5000000000000000  0.3750000000000000  0.5000000000000000   F   F   F
  0.7500000000000000  0.2500000000000000  0.5000000000000000   F   F   F
  0.7590904411996391  0.3750588402877071  0.6047309536691330   T   T   T
  0.5074628368493350  0.2499902330156374  0.6114560376814566   T   T   T
  0.4988666644491815  0.3750707052319555  0.7210890992091024   T   T   T
  0.7493656229296022  0.2499556584256339  0.7088661056137298   T   T   T
  0.5000000000000000  0.6250000000000000  0.2859997583570220   F   F   F
  0.7500000000000000  0.5000000000000000  0.2859997583570220   F   F   F
  0.2500000000000000  0.6250000000000000  0.3929998791785110   F   F   F
  0.5000000000000000  0.5000000000000000  0.3929998791785110   F   F   F
  0.5000000000000000  0.6250000000000000  0.5000000000000000   F   F   F
  0.7500000000000000  0.5000000000000000  0.5000000000000000   F   F   F
  0.7590996318714787  0.6249366735545721  0.6047302411371334   T   T   T
  0.5064445810942289  0.4999834461276222  0.6113267556573589   T   T   T
  0.4987959069404511  0.6249072916305352  0.7210788538599786   T   T   T
  0.7489701217845735  0.4999641147929808  0.7089090894017289   T   T   T
  0.5000000000000000  0.8750000000000000  0.2859997583570220   F   F   F
  0.7500000000000000  0.7500000000000000  0.2859997583570220   F   F   F
  0.2500000000000000  0.8750000000000000  0.3929998791785110   F   F   F
  0.5000000000000000  0.7500000000000000  0.3929998791785110   F   F   F
  0.5000000000000000  0.8750000000000000  0.5000000000000000   F   F   F
  0.7500000000000000  0.7500000000000000  0.5000000000000000   F   F   F
  0.7590977025274981  0.8750484238553469  0.6047359094330389   T   T   T
  0.5074506143928232  0.7499887699363512  0.6114581650668569   T   T   T
  0.4988057871933833  0.8750704145519350  0.7210853015500334   T   T   T
  0.7492230233369810  0.7499553917176911  0.7088824166951824   T   T   T
  0.0000000000000000  0.1250000000000000  0.2859997583570220   F   F   F
  0.2500000000000000  0.0000000000000000  0.2859997583570220   F   F   F
  0.7500000000000000  0.1250000000000000  0.3929998791785110   F   F   F
  0.0000000000000000  0.0000000000000000  0.3929998791785110   F   F   F
  0.0000000000000000  0.1250000000000000  0.5000000000000000   F   F   F
  0.2500000000000000  0.0000000000000000  0.5000000000000000   F   F   F
  0.2590854725094971  0.1249278064028729  0.6047210218389054   T   T   T
  0.0064177584713363  0.0000012351478844  0.6113374687220059   T   T   T
  0.9988822967824831  0.1248937769713976  0.7210853201744172   T   T   T
  0.2489621505134636  0.9999714255812435  0.7089070236824924   T   T   T
  0.0000000000000000  0.3750000000000000  0.2859997583570220   F   F   F
  0.2500000000000000  0.2500000000000000  0.2859997583570220   F   F   F
  0.7500000000000000  0.3750000000000000  0.3929998791785110   F   F   F
  0.0000000000000000  0.2500000000000000  0.3929998791785110   F   F   F
  0.0000000000000000  0.3750000000000000  0.5000000000000000   F   F   F
  0.2500000000000000  0.2500000000000000  0.5000000000000000   F   F   F
  0.2591026307619018  0.3750645979322158  0.6047298909633199   T   T   T
  0.0074539144534995  0.2499975979409896  0.6114557665417379   T   T   T
  0.9988692020806624  0.3750440711712315  0.7210905014055697   T   T   T
  0.2494033135923601  0.2499694589412229  0.7088624543769768   T   T   T
  0.0000000000000000  0.6250000000000000  0.2859997583570220   F   F   F
  0.2500000000000000  0.5000000000000000  0.2859997583570220   F   F   F
  0.7500000000000000  0.6250000000000000  0.3929998791785110   F   F   F
  0.0000000000000000  0.5000000000000000  0.3929998791785110   F   F   F
  0.0000000000000000  0.6250000000000000  0.5000000000000000   F   F   F
  0.2500000000000000  0.5000000000000000  0.5000000000000000   F   F   F
  0.2590943586087562  0.6249364452425183  0.6047300944988692   T   T   T
  0.0064483614595403  0.4999815769433837  0.6113324753369938   T   T   T
  0.9987744144534432  0.6248721417923733  0.7210800244267119   T   T   T
  0.2489489284881188  0.4999754661280420  0.7089097993600859   T   T   T
  0.0000000000000000  0.8750000000000000  0.2859997583570220   F   F   F
  0.2500000000000000  0.7500000000000000  0.2859997583570220   F   F   F
  0.7500000000000000  0.8750000000000000  0.3929998791785110   F   F   F
  0.0000000000000000  0.7500000000000000  0.3929998791785110   F   F   F
  0.0000000000000000  0.8750000000000000  0.5000000000000000   F   F   F
  0.2500000000000000  0.7500000000000000  0.5000000000000000   F   F   F
  0.2590992182689362  0.8750587000703476  0.6047329879910421   T   T   T
  0.0074591792882970  0.7500037401304596  0.6114525933798447   T   T   T
  0.9988211065623247  0.8750455915659927  0.7210746134305452   T   T   T
  0.2492733402090934  0.7499580464419182  0.7088758677127487   T   T   T
  0.3475085758261116  0.1250000000000000  0.2859997583570220   F   F   F
  0.6524914241738884  0.1250000000000000  0.2859997583570220   F   F   F
  0.5000000000000000  0.0000000000000000  0.2442660407789177   F   F   F
  0.5000000000000000  0.0000000000000000  0.3277334759351191   F   F   F
  0.5975085758261116  0.1250000000000000  0.3929998791785110   F   F   F
  0.4024914241738884  0.1250000000000000  0.3929998791785110   F   F   F
  0.7500000000000000  0.0000000000000000  0.3512661616004067   F   F   F
  0.2500000000000000  0.0000000000000000  0.4347335967566082   F   F   F
  0.3475085758261116  0.1250000000000000  0.5000000000000000   F   F   F
  0.6524914241738884  0.1250000000000000  0.5000000000000000   F   F   F
  0.5000000000000000  0.0000000000000000  0.4582662824218957   F   F   F
  0.5000000000000000  0.0000000000000000  0.5417337175781043   F   F   F
  0.5987884838071551  0.1248560513168044  0.6078200911754195   T   T   T
  0.3999804182103048  0.1250668577344101  0.6074406218017145   T   T   T
  0.2498347823389295  0.9999820742916157  0.5659628702531663   T   T   T
  0.2497313689108864  0.9999881568601694  0.6496312806519171   T   T   T
  0.3430637578828950  0.1249799298453951  0.7198475961995854   T   T   T
  0.6559321525498376  0.1250028031315438  0.7197379106569528   T   T   T
  0.4996959847821927  0.9999876325341575  0.6722243382190030   T   T   T
  0.4995454892134674  0.9999850989591152  0.7561293956483368   T   T   T
  0.3475085758261116  0.3750000000000000  0.2859997583570220   F   F   F
  0.6524914241738884  0.3750000000000000  0.2859997583570220   F   F   F
  0.5000000000000000  0.2500000000000000  0.2442660407789177   F   F   F
  0.5000000000000000  0.2500000000000000  0.3277334759351191   F   F   F
  0.5975085758261116  0.3750000000000000  0.3929998791785110   F   F   F
  0.4024914241738884  0.3750000000000000  0.3929998791785110   F   F   F
  0.7500000000000000  0.2500000000000000  0.3512661616004067   F   F   F
  0.2500000000000000  0.2500000000000000  0.4347335967566082   F   F   F
  0.3475085758261116  0.3750000000000000  0.5000000000000000   F   F   F
  0.6524914241738884  0.3750000000000000  0.5000000000000000   F   F   F
  0.5000000000000000  0.2500000000000000  0.4582662824218957   F   F   F
  0.5000000000000000  0.2500000000000000  0.5417337175781043   F   F   F
  0.5987971362941167  0.3751155761411411  0.6078241779012288   T   T   T
  0.4000010751304401  0.3749259542308963  0.6074414594678714   T   T   T
  0.2497855667423181  0.2499984636175299  0.5659807871476517   T   T   T
  0.2496972809230087  0.2499813124518440  0.6496164486525515   T   T   T
  0.3430597700208651  0.3749746756407646  0.7198411311881472   T   T   T
  0.6559291825766564  0.3749141290675766  0.7197396744218167   T   T   T
  0.4998996934162392  0.2499776378116181  0.6722485800667499   T   T   T
  0.4994735908114265  0.2499772285351796  0.7560730662864543   T   T   T
  0.3475085758261116  0.6250000000000000  0.2859997583570220   F   F   F
  0.6524914241738884  0.6250000000000000  0.2859997583570220   F   F   F
  0.5000000000000000  0.5000000000000000  0.2442660407789177   F   F   F
  0.5000000000000000  0.5000000000000000  0.3277334759351191   F   F   F
  0.5975085758261116  0.6250000000000000  0.3929998791785110   F   F   F
  0.4024914241738884  0.6250000000000000  0.3929998791785110   F   F   F
  0.7500000000000000  0.5000000000000000  0.3512661616004067   F   F   F
  0.2500000000000000  0.5000000000000000  0.4347335967566082   F   F   F
  0.3475085758261116  0.6250000000000000  0.5000000000000000   F   F   F
  0.6524914241738884  0.6250000000000000  0.5000000000000000   F   F   F
  0.5000000000000000  0.5000000000000000  0.4582662824218957   F   F   F
  0.5000000000000000  0.5000000000000000  0.5417337175781043   F   F   F
  0.5987768982413826  0.6248621604845255  0.6078232834040023   T   T   T
  0.3999726257797818  0.6250635061660716  0.6074446565217784   T   T   T
  0.2498325804749513  0.4999948533583094  0.5659648083040523   T   T   T
  0.2497238145744092  0.4999980064738239  0.6496312275577480   T   T   T
  0.3430509443471408  0.6249875638119065  0.7198471606015460   T   T   T
  0.6559003487957185  0.6249838865174979  0.7197376425809239   T   T   T
  0.4996916025304898  0.4999739312919260  0.6722170679059900   T   T   T
  0.3475085758261116  0.8750000000000000  0.2859997583570220   F   F   F
  0.6524914241738884  0.8750000000000000  0.2859997583570220   F   F   F
  0.5000000000000000  0.7500000000000000  0.2442660407789177   F   F   F
  0.5000000000000000  0.7500000000000000  0.3277334759351191   F   F   F
  0.5975085758261116  0.8750000000000000  0.3929998791785110   F   F   F
  0.4024914241738884  0.8750000000000000  0.3929998791785110   F   F   F
  0.7500000000000000  0.7500000000000000  0.3512661616004067   F   F   F
  0.2500000000000000  0.7500000000000000  0.4347335967566082   F   F   F
  0.3475085758261116  0.8750000000000000  0.5000000000000000   F   F   F
  0.6524914241738884  0.8750000000000000  0.5000000000000000   F   F   F
  0.5000000000000000  0.7500000000000000  0.4582662824218957   F   F   F
  0.5000000000000000  0.7500000000000000  0.5417337175781043   F   F   F
  0.5987778122385663  0.8751112507981844  0.6078301191200808   T   T   T
  0.3999874226308933  0.8749251755833853  0.6074483555704333   T   T   T
  0.2498038173366552  0.7499986007835062  0.5659796756373510   T   T   T
  0.2496769633918703  0.7499913279371668  0.6496251782114797   T   T   T
  0.3430518928254003  0.8749605607332285  0.7198419756209447   T   T   T
  0.6558911818819695  0.8749636480618506  0.7197353390616215   T   T   T
  0.4999142302413375  0.7499817104602258  0.6722492884712921   T   T   T
  0.4994621379943567  0.7499829870702257  0.7560710849366359   T   T   T
  0.8475085758261116  0.1250000000000000  0.2859997583570220   F   F   F
  0.1524914241738884  0.1250000000000000  0.2859997583570220   F   F   F
  0.0000000000000000  0.0000000000000000  0.2442660407789177   F   F   F
  0.0000000000000000  0.0000000000000000  0.3277334759351191   F   F   F
  0.0975085758261116  0.1250000000000000  0.3929998791785110   F   F   F
  0.9024914241738884  0.1250000000000000  0.3929998791785110   F   F   F
  0.2500000000000000  0.0000000000000000  0.3512661616004067   F   F   F
  0.7500000000000000  0.0000000000000000  0.4347335967566082   F   F   F
  0.8475085758261116  0.1250000000000000  0.5000000000000000   F   F   F
  0.1524914241738884  0.1250000000000000  0.5000000000000000   F   F   F
  0.0000000000000000  0.0000000000000000  0.4582662824218957   F   F   F
  0.0000000000000000  0.0000000000000000  0.5417337175781043   F   F   F
  0.0987783367766752  0.1248584632251806  0.6078266190745936   T   T   T
  0.8999806247837228  0.1250663093117197  0.6074450039378974   T   T   T
  0.7498389961307481  0.9999736878753538  0.5659635729716754   T   T   T
  0.7497239465008860  0.9999839817111322  0.6496329216850043   T   T   T
  0.8430621017083908  0.1249658653791954  0.7198463924625216   T   T   T
  0.1559366194965506  0.1249995394373968  0.7197373936596634   T   T   T
  0.9996912385247043  0.9999867406419014  0.6722218083664018   T   T   T
  0.9995506248409711  0.9999679516666262  0.7561235227237333   T   T   T
  0.8475085758261116  0.3750000000000000  0.2859997583570220   F   F   F
  0.1524914241738884  0.3750000000000000  0.2859997583570220   F   F   F
  0.0000000000000000  0.2500000000000000  0.2442660407789177   F   F   F
  0.0000000000000000  0.2500000000000000  0.3277334759351191   F   F   F
  0.0975085758261116  0.3750000000000000  0.3929998791785110   F   F   F
  0.9024914241738884  0.3750000000000000  0.3929998791785110   F   F   F
  0.2500000000000000  0.2500000000000000  0.3512661616004067   F   F   F
  0.7500000000000000  0.2500000000000000  0.4347335967566082   F   F   F
  0.8475085758261116  0.3750000000000000  0.5000000000000000   F   F   F
  0.1524914241738884  0.3750000000000000  0.5000000000000000   F   F   F
  0.0000000000000000  0.2500000000000000  0.4582662824218957   F   F   F
  0.0000000000000000  0.2500000000000000  0.5417337175781043   F   F   F
  0.0987937919241375  0.3751245141732582  0.6078284356489760   T   T   T
  0.8999973698435113  0.3749289987148714  0.6074472205407986   T   T   T
  0.7497940619139598  0.2499907789469376  0.5659807864449533   T   T   T
  0.7496743777181791  0.2499808618354606  0.6496171365207175   T   T   T
  0.8430528734558820  0.3749739942707961  0.7198375901995178   T   T   T
  0.1559294613437601  0.3749264931314684  0.7197378278777080   T   T   T
  0.9998924696771425  0.2499814075130331  0.6722454704433289   T   T   T
  0.9994745209520772  0.2499704064819355  0.7560796577524513   T   T   T
  0.8475085758261116  0.6250000000000000  0.2859997583570220   F   F   F
  0.1524914241738884  0.6250000000000000  0.2859997583570220   F   F   F
  0.0000000000000000  0.5000000000000000  0.2442660407789177   F   F   F
  0.0000000000000000  0.5000000000000000  0.3277334759351191   F   F   F
  0.0975085758261116  0.6250000000000000  0.3929998791785110   F   F   F
  0.9024914241738884  0.6250000000000000  0.3929998791785110   F   F   F
  0.2500000000000000  0.5000000000000000  0.3512661616004067   F   F   F
  0.7500000000000000  0.5000000000000000  0.4347335967566082   F   F   F
  0.8475085758261116  0.6250000000000000  0.5000000000000000   F   F   F
  0.1524914241738884  0.6250000000000000  0.5000000000000000   F   F   F
  0.0000000000000000  0.5000000000000000  0.4582662824218957   F   F   F
  0.0000000000000000  0.5000000000000000  0.5417337175781043   F   F   F
  0.0987809737571013  0.6248679848485565  0.6078229470666301   T   T   T
  0.8999814034619362  0.6250669799148341  0.6074440993069103   T   T   T
  0.7498487995872196  0.4999847138467501  0.5659664183046473   T   T   T
  0.7497180478072636  0.4999810274276584  0.6496346993131397   T   T   T
  0.8430268749859096  0.6249915124788998  0.7198481216675816   T   T   T
  0.1559180755153307  0.6249874101385871  0.7197399856168971   T   T   T
  0.9996983719910588  0.4999799497117152  0.6722247390905522   T   T   T
  0.9995599428275455  0.4999646189098783  0.7561382015745863   T   T   T
  0.8475085758261116  0.8750000000000000  0.2859997583570220   F   F   F
  0.1524914241738884  0.8750000000000000  0.2859997583570220   F   F   F
  0.0000000000000000  0.7500000000000000  0.2442660407789177   F   F   F
  0.0000000000000000  0.7500000000000000  0.3277334759351191   F   F   F
  0.0975085758261116  0.8750000000000000  0.3929998791785110   F   F   F
  0.9024914241738884  0.8750000000000000  0.3929998791785110   F   F   F
  0.2500000000000000  0.7500000000000000  0.3512661616004067   F   F   F
  0.7500000000000000  0.7500000000000000  0.4347335967566082   F   F   F
  0.8475085758261116  0.8750000000000000  0.5000000000000000   F   F   F
  0.1524914241738884  0.8750000000000000  0.5000000000000000   F   F   F
  0.0000000000000000  0.7500000000000000  0.4582662824218957   F   F   F
  0.0000000000000000  0.7500000000000000  0.5417337175781043   F   F   F
  0.0987779684313210  0.8751297424835798  0.6078269988609222   T   T   T
  0.8999809644926628  0.8749243048563429  0.6074485606789679   T   T   T
  0.7498111089282986  0.7499923865987270  0.5659813916524854   T   T   T
  0.7496564518715161  0.7499753808193219  0.6496267018746735   T   T   T
  0.8430327577423498  0.8749474104125738  0.7198407647075413   T   T   T
  0.1559169857326950  0.8749460452221172  0.7197359471393625   T   T   T
  0.9999140619890809  0.7499792256552738  0.6722461436369969   T   T   T
  0.9994677650254502  0.7499708374301477  0.7560630135589577   T   T   T
 
  0.00000000E+00  0.00000000E+00  0.00000000E+00
  0.00000000E+00  0.00000000E+00  0.00000000E+00
  0.00000000E+00  0.00000000E+00  0.00000000E+00
  0.00000000E+00  0.00000000E+00  0.00000000E+00
  0.00000000E+00  0.00000000E+00  0.00000000E+00
  0.00000000E+00  0.00000000E+00  0.00000000E+00
  0.00000000E+00  0.00000000E+00  0.00000000E+00
  0.00000000E+00  0.00000000E+00  0.00000000E+00
  0.00000000E+00  0.00000000E+00  0.00000000E+00
  0.00000000E+00  0.00000000E+00  0.00000000E+00
  0.00000000E+00  0.00000000E+00  0.00000000E+00
  0.00000000E+00  0.00000000E+00  0.00000000E+00
  0.00000000E+00  0.00000000E+00  0.00000000E+00
  0.00000000E+00  0.00000000E+00  0.00000000E+00
  0.00000000E+00  0.00000000E+00  0.00000000E+00
  0.00000000E+00  0.00000000E+00  0.00000000E+00
  0.00000000E+00  0.00000000E+00  0.00000000E+00
  0.00000000E+00  0.00000000E+00  0.00000000E+00
  0.00000000E+00  0.00000000E+00  0.00000000E+00
  0.00000000E+00  0.00000000E+00  0.00000000E+00
  0.00000000E+00  0.00000000E+00  0.00000000E+00
  0.00000000E+00  0.00000000E+00  0.00000000E+00
  0.00000000E+00  0.00000000E+00  0.00000000E+00
  0.00000000E+00  0.00000000E+00  0.00000000E+00
  0.00000000E+00  0.00000000E+00  0.00000000E+00
  0.00000000E+00  0.00000000E+00  0.00000000E+00
  0.00000000E+00  0.00000000E+00  0.00000000E+00
  0.00000000E+00  0.00000000E+00  0.00000000E+00
  0.00000000E+00  0.00000000E+00  0.00000000E+00
  0.00000000E+00  0.00000000E+00  0.00000000E+00
  0.00000000E+00  0.00000000E+00  0.00000000E+00
  0.00000000E+00  0.00000000E+00  0.00000000E+00
  0.00000000E+00  0.00000000E+00  0.00000000E+00
  0.00000000E+00  0.00000000E+00  0.00000000E+00
  0.00000000E+00  0.00000000E+00  0.00000000E+00
  0.00000000E+00  0.00000000E+00  0.00000000E+00
  0.00000000E+00  0.00000000E+00  0.00000000E+00
  0.00000000E+00  0.00000000E+00  0.00000000E+00
  0.00000000E+00  0.00000000E+00  0.00000000E+00
  0.00000000E+00  0.00000000E+00  0.00000000E+00
  0.00000000E+00  0.00000000E+00  0.00000000E+00
  0.00000000E+00  0.00000000E+00  0.00000000E+00
  0.00000000E+00  0.00000000E+00  0.00000000E+00
  0.00000000E+00  0.00000000E+00  0.00000000E+00
  0.00000000E+00  0.00000000E+00  0.00000000E+00
  0.00000000E+00  0.00000000E+00  0.00000000E+00
  0.00000000E+00  0.00000000E+00  0.00000000E+00
  0.00000000E+00  0.00000000E+00  0.00000000E+00
  0.00000000E+00  0.00000000E+00  0.00000000E+00
  0.00000000E+00  0.00000000E+00  0.00000000E+00
  0.00000000E+00  0.00000000E+00  0.00000000E+00
  0.00000000E+00  0.00000000E+00  0.00000000E+00
  0.00000000E+00  0.00000000E+00  0.00000000E+00
  0.00000000E+00  0.00000000E+00  0.00000000E+00
  0.00000000E+00  0.00000000E+00  0.00000000E+00
  0.00000000E+00  0.00000000E+00  0.00000000E+00
  0.00000000E+00  0.00000000E+00  0.00000000E+00
  0.00000000E+00  0.00000000E+00  0.00000000E+00
  0.00000000E+00  0.00000000E+00  0.00000000E+00
  0.00000000E+00  0.00000000E+00  0.00000000E+00
  0.00000000E+00  0.00000000E+00  0.00000000E+00
  0.00000000E+00  0.00000000E+00  0.00000000E+00
  0.00000000E+00  0.00000000E+00  0.00000000E+00
  0.00000000E+00  0.00000000E+00  0.00000000E+00
  0.00000000E+00  0.00000000E+00  0.00000000E+00
  0.00000000E+00  0.00000000E+00  0.00000000E+00
  0.00000000E+00  0.00000000E+00  0.00000000E+00
  0.00000000E+00  0.00000000E+00  0.00000000E+00
  0.00000000E+00  0.00000000E+00  0.00000000E+00
  0.00000000E+00  0.00000000E+00  0.00000000E+00
  0.00000000E+00  0.00000000E+00  0.00000000E+00
  0.00000000E+00  0.00000000E+00  0.00000000E+00
  0.00000000E+00  0.00000000E+00  0.00000000E+00
  0.00000000E+00  0.00000000E+00  0.00000000E+00
  0.00000000E+00  0.00000000E+00  0.00000000E+00
  0.00000000E+00  0.00000000E+00  0.00000000E+00
  0.00000000E+00  0.00000000E+00  0.00000000E+00
  0.00000000E+00  0.00000000E+00  0.00000000E+00
  0.00000000E+00  0.00000000E+00  0.00000000E+00
  0.00000000E+00  0.00000000E+00  0.00000000E+00
  0.00000000E+00  0.00000000E+00  0.00000000E+00
  0.00000000E+00  0.00000000E+00  0.00000000E+00
  0.00000000E+00  0.00000000E+00  0.00000000E+00
  0.00000000E+00  0.00000000E+00  0.00000000E+00
  0.00000000E+00  0.00000000E+00  0.00000000E+00
  0.00000000E+00  0.00000000E+00  0.00000000E+00
  0.00000000E+00  0.00000000E+00  0.00000000E+00
  0.00000000E+00  0.00000000E+00  0.00000000E+00
  0.00000000E+00  0.00000000E+00  0.00000000E+00
  0.00000000E+00  0.00000000E+00  0.00000000E+00
  0.00000000E+00  0.00000000E+00  0.00000000E+00
  0.00000000E+00  0.00000000E+00  0.00000000E+00
  0.00000000E+00  0.00000000E+00  0.00000000E+00
  0.00000000E+00  0.00000000E+00  0.00000000E+00
  0.00000000E+00  0.00000000E+00  0.00000000E+00
  0.00000000E+00  0.00000000E+00  0.00000000E+00
  0.00000000E+00  0.00000000E+00  0.00000000E+00
  0.00000000E+00  0.00000000E+00  0.00000000E+00
  0.00000000E+00  0.00000000E+00  0.00000000E+00
  0.00000000E+00  0.00000000E+00  0.00000000E+00
  0.00000000E+00  0.00000000E+00  0.00000000E+00
  0.00000000E+00  0.00000000E+00  0.00000000E+00
  0.00000000E+00  0.00000000E+00  0.00000000E+00
  0.00000000E+00  0.00000000E+00  0.00000000E+00
  0.00000000E+00  0.00000000E+00  0.00000000E+00
  0.00000000E+00  0.00000000E+00  0.00000000E+00
  0.00000000E+00  0.00000000E+00  0.00000000E+00
  0.00000000E+00  0.00000000E+00  0.00000000E+00
  0.00000000E+00  0.00000000E+00  0.00000000E+00
  0.00000000E+00  0.00000000E+00  0.00000000E+00
  0.00000000E+00  0.00000000E+00  0.00000000E+00
  0.00000000E+00  0.00000000E+00  0.00000000E+00
  0.00000000E+00  0.00000000E+00  0.00000000E+00
  0.00000000E+00  0.00000000E+00  0.00000000E+00
  0.00000000E+00  0.00000000E+00  0.00000000E+00
  0.00000000E+00  0.00000000E+00  0.00000000E+00
  0.00000000E+00  0.00000000E+00  0.00000000E+00
  0.00000000E+00  0.00000000E+00  0.00000000E+00
  0.00000000E+00  0.00000000E+00  0.00000000E+00
  0.00000000E+00  0.00000000E+00  0.00000000E+00
  0.00000000E+00  0.00000000E+00  0.00000000E+00
  0.00000000E+00  0.00000000E+00  0.00000000E+00
  0.00000000E+00  0.00000000E+00  0.00000000E+00
  0.00000000E+00  0.00000000E+00  0.00000000E+00
  0.00000000E+00  0.00000000E+00  0.00000000E+00
  0.00000000E+00  0.00000000E+00  0.00000000E+00
  0.00000000E+00  0.00000000E+00  0.00000000E+00
  0.00000000E+00  0.00000000E+00  0.00000000E+00
  0.00000000E+00  0.00000000E+00  0.00000000E+00
  0.00000000E+00  0.00000000E+00  0.00000000E+00
  0.00000000E+00  0.00000000E+00  0.00000000E+00
  0.00000000E+00  0.00000000E+00  0.00000000E+00
  0.00000000E+00  0.00000000E+00  0.00000000E+00
  0.00000000E+00  0.00000000E+00  0.00000000E+00
  0.00000000E+00  0.00000000E+00  0.00000000E+00
  0.00000000E+00  0.00000000E+00  0.00000000E+00
  0.00000000E+00  0.00000000E+00  0.00000000E+00
  0.00000000E+00  0.00000000E+00  0.00000000E+00
  0.00000000E+00  0.00000000E+00  0.00000000E+00
  0.00000000E+00  0.00000000E+00  0.00000000E+00
  0.00000000E+00  0.00000000E+00  0.00000000E+00
  0.00000000E+00  0.00000000E+00  0.00000000E+00
  0.00000000E+00  0.00000000E+00  0.00000000E+00
  0.00000000E+00  0.00000000E+00  0.00000000E+00
  0.00000000E+00  0.00000000E+00  0.00000000E+00
  0.00000000E+00  0.00000000E+00  0.00000000E+00
  0.00000000E+00  0.00000000E+00  0.00000000E+00
  0.00000000E+00  0.00000000E+00  0.00000000E+00
  0.00000000E+00  0.00000000E+00  0.00000000E+00
  0.00000000E+00  0.00000000E+00  0.00000000E+00
  0.00000000E+00  0.00000000E+00  0.00000000E+00
  0.00000000E+00  0.00000000E+00  0.00000000E+00
  0.00000000E+00  0.00000000E+00  0.00000000E+00
  0.00000000E+00  0.00000000E+00  0.00000000E+00
  0.00000000E+00  0.00000000E+00  0.00000000E+00
  0.00000000E+00  0.00000000E+00  0.00000000E+00
  0.00000000E+00  0.00000000E+00  0.00000000E+00
  0.00000000E+00  0.00000000E+00  0.00000000E+00
  0.00000000E+00  0.00000000E+00  0.00000000E+00
  0.00000000E+00  0.00000000E+00  0.00000000E+00
  0.00000000E+00  0.00000000E+00  0.00000000E+00
  0.00000000E+00  0.00000000E+00  0.00000000E+00
  0.00000000E+00  0.00000000E+00  0.00000000E+00
  0.00000000E+00  0.00000000E+00  0.00000000E+00
  0.00000000E+00  0.00000000E+00  0.00000000E+00
  0.00000000E+00  0.00000000E+00  0.00000000E+00
  0.00000000E+00  0.00000000E+00  0.00000000E+00
  0.00000000E+00  0.00000000E+00  0.00000000E+00
  0.00000000E+00  0.00000000E+00  0.00000000E+00
  0.00000000E+00  0.00000000E+00  0.00000000E+00
  0.00000000E+00  0.00000000E+00  0.00000000E+00
  0.00000000E+00  0.00000000E+00  0.00000000E+00
  0.00000000E+00  0.00000000E+00  0.00000000E+00
  0.00000000E+00  0.00000000E+00  0.00000000E+00
  0.00000000E+00  0.00000000E+00  0.00000000E+00
  0.00000000E+00  0.00000000E+00  0.00000000E+00
  0.00000000E+00  0.00000000E+00  0.00000000E+00
  0.00000000E+00  0.00000000E+00  0.00000000E+00
  0.00000000E+00  0.00000000E+00  0.00000000E+00
  0.00000000E+00  0.00000000E+00  0.00000000E+00
  0.00000000E+00  0.00000000E+00  0.00000000E+00
  0.00000000E+00  0.00000000E+00  0.00000000E+00
  0.00000000E+00  0.00000000E+00  0.00000000E+00
  0.00000000E+00  0.00000000E+00  0.00000000E+00
  0.00000000E+00  0.00000000E+00  0.00000000E+00
  0.00000000E+00  0.00000000E+00  0.00000000E+00
  0.00000000E+00  0.00000000E+00  0.00000000E+00
  0.00000000E+00  0.00000000E+00  0.00000000E+00
  0.00000000E+00  0.00000000E+00  0.00000000E+00
  0.00000000E+00  0.00000000E+00  0.00000000E+00
  0.00000000E+00  0.00000000E+00  0.00000000E+00
  0.00000000E+00  0.00000000E+00  0.00000000E+00
  0.00000000E+00  0.00000000E+00  0.00000000E+00
  0.00000000E+00  0.00000000E+00  0.00000000E+00
  0.00000000E+00  0.00000000E+00  0.00000000E+00
  0.00000000E+00  0.00000000E+00  0.00000000E+00
  0.00000000E+00  0.00000000E+00  0.00000000E+00
  0.00000000E+00  0.00000000E+00  0.00000000E+00
  0.00000000E+00  0.00000000E+00  0.00000000E+00
  0.00000000E+00  0.00000000E+00  0.00000000E+00
  0.00000000E+00  0.00000000E+00  0.00000000E+00
  0.00000000E+00  0.00000000E+00  0.00000000E+00
  0.00000000E+00  0.00000000E+00  0.00000000E+00
  0.00000000E+00  0.00000000E+00  0.00000000E+00
  0.00000000E+00  0.00000000E+00  0.00000000E+00
  0.00000000E+00  0.00000000E+00  0.00000000E+00
  0.00000000E+00  0.00000000E+00  0.00000000E+00
  0.00000000E+00  0.00000000E+00  0.00000000E+00
  0.00000000E+00  0.00000000E+00  0.00000000E+00
  0.00000000E+00  0.00000000E+00  0.00000000E+00
  0.00000000E+00  0.00000000E+00  0.00000000E+00
  0.00000000E+00  0.00000000E+00  0.00000000E+00
  0.00000000E+00  0.00000000E+00  0.00000000E+00
  0.00000000E+00  0.00000000E+00  0.00000000E+00
  0.00000000E+00  0.00000000E+00  0.00000000E+00
  0.00000000E+00  0.00000000E+00  0.00000000E+00
  0.00000000E+00  0.00000000E+00  0.00000000E+00
  0.00000000E+00  0.00000000E+00  0.00000000E+00
  0.00000000E+00  0.00000000E+00  0.00000000E+00
  0.00000000E+00  0.00000000E+00  0.00000000E+00
  0.00000000E+00  0.00000000E+00  0.00000000E+00
  0.00000000E+00  0.00000000E+00  0.00000000E+00
  0.00000000E+00  0.00000000E+00  0.00000000E+00
  0.00000000E+00  0.00000000E+00  0.00000000E+00
  0.00000000E+00  0.00000000E+00  0.00000000E+00
  0.00000000E+00  0.00000000E+00  0.00000000E+00
  0.00000000E+00  0.00000000E+00  0.00000000E+00
  0.00000000E+00  0.00000000E+00  0.00000000E+00
  0.00000000E+00  0.00000000E+00  0.00000000E+00
  0.00000000E+00  0.00000000E+00  0.00000000E+00
  0.00000000E+00  0.00000000E+00  0.00000000E+00
  0.00000000E+00  0.00000000E+00  0.00000000E+00
  0.00000000E+00  0.00000000E+00  0.00000000E+00
  0.00000000E+00  0.00000000E+00  0.00000000E+00
  0.00000000E+00  0.00000000E+00  0.00000000E+00
  0.00000000E+00  0.00000000E+00  0.00000000E+00
  0.00000000E+00  0.00000000E+00  0.00000000E+00
  0.00000000E+00  0.00000000E+00  0.00000000E+00
  0.00000000E+00  0.00000000E+00  0.00000000E+00
