Ti  O 
 1.0000000000000000
    13.1414240571821228    0.0000000000000000    0.0000000000000000
     0.0000000000000000   11.8675837719843074    0.0000000000000000
     0.0000000000000000    0.0000000000000000   30.7042271454677689
  Ti   O
  80 159
Selective dynamics
Direct
  0.5000000000000000  0.1250000000000000  0.2859997583570220   F   F   F
  0.7500000000000001  0.0000000000000000  0.2859997583570220   F   F   F
  0.2500000000000000  0.1250000000000000  0.3929998791785109   F   F   F
  0.5000000000000000  0.0000000000000000  0.3929998791785109   F   F   F
  0.5000000000000000  0.1250000000000000  0.4999999999999999   F   F   F
  0.7500000000000001  0.0000000000000000  0.4999999999999999   F   F   F
  0.7590843312189045  0.1249244389399290  0.6047259914967938   T   T   T
  0.5064265499826797  0.9999828334495277  0.6113361305154869   T   T   T
  0.4988833992582378  0.1249050807067934  0.7210768976524581   T   T   T
  0.7489903885850007  0.9999692291677386  0.7089066626753251   T   T   T
  0.5000000000000000  0.3750000000000000  0.2859997583570220   F   F   F
  0.7500000000000001  0.2500000000000000  0.2859997583570220   F   F   F
  0.2500000000000000  0.3750000000000000  0.3929998791785109   F   F   F
  0.5000000000000000  0.2500000000000000  0.3929998791785109   F   F   F
  0.5000000000000000  0.3750000000000000  0.4999999999999999   F   F   F
  0.7500000000000001  0.2500000000000000  0.4999999999999999   F   F   F
  0.7590904411996410  0.3750588402877079  0.6047309536691359   T   T   T
  0.5074628368493369  0.2499902330156380  0.6114560376814537   T   T   T
  0.4988666644491820  0.3750707052319537  0.7210890992091054   T   T   T
  0.7493656229296041  0.2499556584256327  0.7088661056137294   T   T   T
  0.5000000000000000  0.6250000000000000  0.2859997583570220   F   F   F
  0.7500000000000001  0.5000000000000000  0.2859997583570220   F   F   F
  0.2500000000000000  0.6250000000000000  0.3929998791785109   F   F   F
  0.5000000000000000  0.5000000000000000  0.3929998791785109   F   F   F
  0.5000000000000000  0.6250000000000000  0.4999999999999999   F   F   F
  0.7500000000000001  0.5000000000000000  0.4999999999999999   F   F   F
  0.7590996318714774  0.6249366735545718  0.6047302411371317   T   T   T
  0.5064445810942259  0.4999834461276243  0.6113267556573585   T   T   T
  0.4987959069404537  0.6249072916305327  0.7210788538599817   T   T   T
  0.7489701217845760  0.4999641147929815  0.7089090894017263   T   T   T
  0.5000000000000000  0.8750000000000001  0.2859997583570220   F   F   F
  0.7500000000000001  0.7500000000000000  0.2859997583570220   F   F   F
  0.2500000000000000  0.8750000000000001  0.3929998791785109   F   F   F
  0.5000000000000000  0.7500000000000000  0.3929998791785109   F   F   F
  0.5000000000000000  0.8750000000000001  0.4999999999999999   F   F   F
  0.7500000000000001  0.7500000000000000  0.4999999999999999   F   F   F
  0.7590977025274978  0.8750484238553501  0.6047359094330407   T   T   T
  0.5074506143928241  0.7499887699363509  0.6114581650668596   T   T   T
  0.4988057871933866  0.8750704145519363  0.7210853015500366   T   T   T
  0.7492230233369805  0.7499553917176897  0.7088824166951803   T   T   T
  0.0000000000000000  0.1250000000000000  0.2859997583570220   F   F   F
  0.2500000000000000  0.0000000000000000  0.2859997583570220   F   F   F
  0.7500000000000001  0.1250000000000000  0.3929998791785109   F   F   F
  0.0000000000000000  0.0000000000000000  0.3929998791785109   F   F   F
  0.0000000000000000  0.1250000000000000  0.4999999999999999   F   F   F
  0.2500000000000000  0.0000000000000000  0.4999999999999999   F   F   F
  0.2590854725094955  0.1249278064028736  0.6047210218389030   T   T   T
  0.0064177584713344  0.0000012351478833  0.6113374687220038   T   T   T
  0.9988822967824827  0.1248937769713948  0.7210853201744137   T   T   T
  0.2489621505134653  0.9999714255812430  0.7089070236824901   T   T   T
  0.0000000000000000  0.3750000000000000  0.2859997583570220   F   F   F
  0.2500000000000000  0.2500000000000000  0.2859997583570220   F   F   F
  0.7500000000000001  0.3750000000000000  0.3929998791785109   F   F   F
  0.0000000000000000  0.2500000000000000  0.3929998791785109   F   F   F
  0.0000000000000000  0.3750000000000000  0.4999999999999999   F   F   F
  0.2500000000000000  0.2500000000000000  0.4999999999999999   F   F   F
  0.2591026307619019  0.3750645979322125  0.6047298909633210   T   T   T
  0.0074539144534987  0.2499975979409892  0.6114557665417346   T   T   T
  0.9988692020806643  0.3750440711712317  0.7210905014055685   T   T   T
  0.2494033135923593  0.2499694589412210  0.7088624543769734   T   T   T
  0.0000000000000000  0.6250000000000000  0.2859997583570220   F   F   F
  0.2500000000000000  0.5000000000000000  0.2859997583570220   F   F   F
  0.7500000000000001  0.6250000000000000  0.3929998791785109   F   F   F
  0.0000000000000000  0.5000000000000000  0.3929998791785109   F   F   F
  0.0000000000000000  0.6250000000000000  0.4999999999999999   F   F   F
  0.2500000000000000  0.5000000000000000  0.4999999999999999   F   F   F
  0.2590943586087581  0.6249364452425167  0.6047300944988673   T   T   T
  0.0064483614595387  0.4999815769433821  0.6113324753369962   T   T   T
  0.9987744144534412  0.6248721417923748  0.7210800244267135   T   T   T
  0.2489489284881201  0.4999754661280398  0.7089097993600887   T   T   T
  0.0000000000000000  0.8750000000000001  0.2859997583570220   F   F   F
  0.2500000000000000  0.7500000000000000  0.2859997583570220   F   F   F
  0.7500000000000001  0.8750000000000001  0.3929998791785109   F   F   F
  0.0000000000000000  0.7500000000000000  0.3929998791785109   F   F   F
  0.0000000000000000  0.8750000000000001  0.4999999999999999   F   F   F
  0.2500000000000000  0.7500000000000000  0.4999999999999999   F   F   F
  0.2590992182689370  0.8750587000703449  0.6047329879910437   T   T   T
  0.0074591792882937  0.7500037401304611  0.6114525933798464   T   T   T
  0.9988211065623243  0.8750455915659898  0.7210746134305424   T   T   T
  0.2492733402090941  0.7499580464419213  0.7088758677127486   T   T   T
  0.3475085758261117  0.1250000000000000  0.2859997583570220   F   F   F
  0.6524914241738884  0.1250000000000000  0.2859997583570220   F   F   F
  0.5000000000000000  0.0000000000000000  0.2442660407789177   F   F   F
  0.5000000000000000  0.0000000000000000  0.3277334759351190   F   F   F
  0.5975085758261116  0.1250000000000000  0.3929998791785109   F   F   F
  0.4024914241738884  0.1250000000000000  0.3929998791785109   F   F   F
  0.7500000000000001  0.0000000000000000  0.3512661616004067   F   F   F
  0.2500000000000000  0.0000000000000000  0.4347335967566082   F   F   F
  0.3475085758261117  0.1250000000000000  0.4999999999999999   F   F   F
  0.6524914241738884  0.1250000000000000  0.4999999999999999   F   F   F
  0.5000000000000000  0.0000000000000000  0.4582662824218957   F   F   F
  0.5000000000000000  0.0000000000000000  0.5417337175781043   F   F   F
  0.5987884838071577  0.1248560513168032  0.6078200911754175   T   T   T
  0.3999804182103016  0.1250668577344070  0.6074406218017129   T   T   T
  0.2498347823389306  0.9999820742916161  0.5659628702531629   T   T   T
  0.2497313689108838  0.9999881568601704  0.6496312806519194   T   T   T
  0.3430637578828974  0.1249799298453941  0.7198475961995862   T   T   T
  0.6559321525498387  0.1250028031315450  0.7197379106569530   T   T   T
  0.4996959847821946  0.9999876325341553  0.6722243382190016   T   T   T
  0.4995454892134663  0.9999850989591176  0.7561293956483376   T   T   T
  0.3475085758261117  0.3750000000000000  0.2859997583570220   F   F   F
  0.6524914241738884  0.3750000000000000  0.2859997583570220   F   F   F
  0.5000000000000000  0.2500000000000000  0.2442660407789177   F   F   F
  0.5000000000000000  0.2500000000000000  0.3277334759351190   F   F   F
  0.5975085758261116  0.3750000000000000  0.3929998791785109   F   F   F
  0.4024914241738884  0.3750000000000000  0.3929998791785109   F   F   F
  0.7500000000000001  0.2500000000000000  0.3512661616004067   F   F   F
  0.2500000000000000  0.2500000000000000  0.4347335967566082   F   F   F
  0.3475085758261117  0.3750000000000000  0.4999999999999999   F   F   F
  0.6524914241738884  0.3750000000000000  0.4999999999999999   F   F   F
  0.5000000000000000  0.2500000000000000  0.4582662824218957   F   F   F
  0.5000000000000000  0.2500000000000000  0.5417337175781043   F   F   F
  0.5987971362941137  0.3751155761411408  0.6078241779012277   T   T   T
  0.4000010751304388  0.3749259542308938  0.6074414594678704   T   T   T
  0.2497855667423210  0.2499984636175318  0.5659807871476539   T   T   T
  0.2496972809230106  0.2499813124518450  0.6496164486525482   T   T   T
  0.3430597700208632  0.3749746756407656  0.7198411311881449   T   T   T
  0.6559291825766541  0.3749141290675795  0.7197396744218137   T   T   T
  0.4998996934162407  0.2499776378116166  0.6722485800667510   T   T   T
  0.4994735908114283  0.2499772285351787  0.7560730662864550   T   T   T
  0.3475085758261117  0.6250000000000000  0.2859997583570220   F   F   F
  0.6524914241738884  0.6250000000000000  0.2859997583570220   F   F   F
  0.5000000000000000  0.5000000000000000  0.2442660407789177   F   F   F
  0.5000000000000000  0.5000000000000000  0.3277334759351190   F   F   F
  0.5975085758261116  0.6250000000000000  0.3929998791785109   F   F   F
  0.4024914241738884  0.6250000000000000  0.3929998791785109   F   F   F
  0.7500000000000001  0.5000000000000000  0.3512661616004067   F   F   F
  0.2500000000000000  0.5000000000000000  0.4347335967566082   F   F   F
  0.3475085758261117  0.6250000000000000  0.4999999999999999   F   F   F
  0.6524914241738884  0.6250000000000000  0.4999999999999999   F   F   F
  0.5000000000000000  0.5000000000000000  0.4582662824218957   F   F   F
  0.5000000000000000  0.5000000000000000  0.5417337175781043   F   F   F
  0.5987768982413834  0.6248621604845281  0.6078232834040042   T   T   T
  0.3999726257797791  0.6250635061660726  0.6074446565217764   T   T   T
  0.2498325804749516  0.4999948533583113  0.5659648083040533   T   T   T
  0.2497238145744092  0.4999980064738259  0.6496312275577499   T   T   T
  0.3430509443471397  0.6249875638119059  0.7198471606015435   T   T   T
  0.6559003487957215  0.6249838865174960  0.7197376425809251   T   T   T
  0.4996916025304908  0.4999739312919256  0.6722170679059914   T   T   T
  0.3475085758261117  0.8750000000000001  0.2859997583570220   F   F   F
  0.6524914241738884  0.8750000000000001  0.2859997583570220   F   F   F
  0.5000000000000000  0.7500000000000000  0.2442660407789177   F   F   F
  0.5000000000000000  0.7500000000000000  0.3277334759351190   F   F   F
  0.5975085758261116  0.8750000000000001  0.3929998791785109   F   F   F
  0.4024914241738884  0.8750000000000001  0.3929998791785109   F   F   F
  0.7500000000000001  0.7500000000000000  0.3512661616004067   F   F   F
  0.2500000000000000  0.7500000000000000  0.4347335967566082   F   F   F
  0.3475085758261117  0.8750000000000001  0.4999999999999999   F   F   F
  0.6524914241738884  0.8750000000000001  0.4999999999999999   F   F   F
  0.5000000000000000  0.7500000000000000  0.4582662824218957   F   F   F
  0.5000000000000000  0.7500000000000000  0.5417337175781043   F   F   F
  0.5987778122385642  0.8751112507981851  0.6078301191200803   T   T   T
  0.3999874226308909  0.8749251755833835  0.6074483555704363   T   T   T
  0.2498038173366526  0.7499986007835073  0.5659796756373487   T   T   T
  0.2496769633918704  0.7499913279371696  0.6496251782114769   T   T   T
  0.3430518928253983  0.8749605607332273  0.7198419756209481   T   T   T
  0.6558911818819715  0.8749636480618478  0.7197353390616235   T   T   T
  0.4999142302413351  0.7499817104602244  0.6722492884712955   T   T   T
  0.4994621379943597  0.7499829870702248  0.7560710849366361   T   T   T
  0.8475085758261116  0.1250000000000000  0.2859997583570220   F   F   F
  0.1524914241738884  0.1250000000000000  0.2859997583570220   F   F   F
  0.0000000000000000  0.0000000000000000  0.2442660407789177   F   F   F
  0.0000000000000000  0.0000000000000000  0.3277334759351190   F   F   F
  0.0975085758261116  0.1250000000000000  0.3929998791785109   F   F   F
  0.9024914241738884  0.1250000000000000  0.3929998791785109   F   F   F
  0.2500000000000000  0.0000000000000000  0.3512661616004067   F   F   F
  0.7500000000000001  0.0000000000000000  0.4347335967566082   F   F   F
  0.8475085758261116  0.1250000000000000  0.4999999999999999   F   F   F
  0.1524914241738884  0.1250000000000000  0.4999999999999999   F   F   F
  0.0000000000000000  0.0000000000000000  0.4582662824218957   F   F   F
  0.0000000000000000  0.0000000000000000  0.5417337175781043   F   F   F
  0.0987783367766741  0.1248584632251792  0.6078266190745912   T   T   T
  0.8999806247837210  0.1250663093117207  0.6074450039378955   T   T   T
  0.7498389961307457  0.9999736878753568  0.5659635729716782   T   T   T
  0.7497239465008871  0.9999839817111331  0.6496329216850028   T   T   T
  0.8430621017083895  0.1249658653791922  0.7198463924625239   T   T   T
  0.1559366194965485  0.1249995394373984  0.7197373936596615   T   T   T
  0.9996912385247035  0.9999867406419026  0.6722218083663984   T   T   T
  0.9995506248409696  0.9999679516666234  0.7561235227237312   T   T   T
  0.8475085758261116  0.3750000000000000  0.2859997583570220   F   F   F
  0.1524914241738884  0.3750000000000000  0.2859997583570220   F   F   F
  0.0000000000000000  0.2500000000000000  0.2442660407789177   F   F   F
  0.0000000000000000  0.2500000000000000  0.3277334759351190   F   F   F
  0.0975085758261116  0.3750000000000000  0.3929998791785109   F   F   F
  0.9024914241738884  0.3750000000000000  0.3929998791785109   F   F   F
  0.2500000000000000  0.2500000000000000  0.3512661616004067   F   F   F
  0.7500000000000001  0.2500000000000000  0.4347335967566082   F   F   F
  0.8475085758261116  0.3750000000000000  0.4999999999999999   F   F   F
  0.1524914241738884  0.3750000000000000  0.4999999999999999   F   F   F
  0.0000000000000000  0.2500000000000000  0.4582662824218957   F   F   F
  0.0000000000000000  0.2500000000000000  0.5417337175781043   F   F   F
  0.0987937919241377  0.3751245141732592  0.6078284356489768   T   T   T
  0.8999973698435094  0.3749289987148691  0.6074472205407964   T   T   T
  0.7497940619139590  0.2499907789469360  0.5659807864449515   T   T   T
  0.7496743777181796  0.2499808618354580  0.6496171365207145   T   T   T
  0.8430528734558830  0.3749739942707979  0.7198375901995201   T   T   T
  0.1559294613437567  0.3749264931314685  0.7197378278777078   T   T   T
  0.9998924696771413  0.2499814075130345  0.6722454704433262   T   T   T
  0.9994745209520778  0.2499704064819324  0.7560796577524495   T   T   T
  0.8475085758261116  0.6250000000000000  0.2859997583570220   F   F   F
  0.1524914241738884  0.6250000000000000  0.2859997583570220   F   F   F
  0.0000000000000000  0.5000000000000000  0.2442660407789177   F   F   F
  0.0000000000000000  0.5000000000000000  0.3277334759351190   F   F   F
  0.0975085758261116  0.6250000000000000  0.3929998791785109   F   F   F
  0.9024914241738884  0.6250000000000000  0.3929998791785109   F   F   F
  0.2500000000000000  0.5000000000000000  0.3512661616004067   F   F   F
  0.7500000000000001  0.5000000000000000  0.4347335967566082   F   F   F
  0.8475085758261116  0.6250000000000000  0.4999999999999999   F   F   F
  0.1524914241738884  0.6250000000000000  0.4999999999999999   F   F   F
  0.0000000000000000  0.5000000000000000  0.4582662824218957   F   F   F
  0.0000000000000000  0.5000000000000000  0.5417337175781043   F   F   F
  0.0987809737571037  0.6248679848485568  0.6078229470666281   T   T   T
  0.8999814034619378  0.6250669799148336  0.6074440993069111   T   T   T
  0.7498487995872170  0.4999847138467497  0.5659664183046508   T   T   T
  0.7497180478072636  0.4999810274276555  0.6496346993131428   T   T   T
  0.8430268749859080  0.6249915124788978  0.7198481216675787   T   T   T
  0.1559180755153280  0.6249874101385856  0.7197399856168996   T   T   T
  0.9996983719910586  0.4999799497117187  0.6722247390905507   T   T   T
  0.9995599428275427  0.4999646189098796  0.7561382015745837   T   T   T
  0.8475085758261116  0.8750000000000001  0.2859997583570220   F   F   F
  0.1524914241738884  0.8750000000000001  0.2859997583570220   F   F   F
  0.0000000000000000  0.7500000000000000  0.2442660407789177   F   F   F
  0.0000000000000000  0.7500000000000000  0.3277334759351190   F   F   F
  0.0975085758261116  0.8750000000000001  0.3929998791785109   F   F   F
  0.9024914241738884  0.8750000000000001  0.3929998791785109   F   F   F
  0.2500000000000000  0.7500000000000000  0.3512661616004067   F   F   F
  0.7500000000000001  0.7500000000000000  0.4347335967566082   F   F   F
  0.8475085758261116  0.8750000000000001  0.4999999999999999   F   F   F
  0.1524914241738884  0.8750000000000001  0.4999999999999999   F   F   F
  0.0000000000000000  0.7500000000000000  0.4582662824218957   F   F   F
  0.0000000000000000  0.7500000000000000  0.5417337175781043   F   F   F
  0.0987779684313220  0.8751297424835808  0.6078269988609214   T   T   T
  0.8999809644926632  0.8749243048563431  0.6074485606789668   T   T   T
  0.7498111089283017  0.7499923865987247  0.5659813916524858   T   T   T
  0.7496564518715152  0.7499753808193251  0.6496267018746723   T   T   T
  0.8430327577423526  0.8749474104125751  0.7198407647075421   T   T   T
  0.1559169857326978  0.8749460452221197  0.7197359471393616   T   T   T
  0.9999140619890784  0.7499792256552771  0.6722461436369995   T   T   T
  0.9994677650254518  0.7499708374301503  0.7560630135589572   T   T   T
