Ti  O                                   
   1.00000000000000     
    12.9956992448922488    0.0000000000000000    0.0000000000000000
     0.0000000000000000   11.7684137168329119    0.0000000000000000
     0.0000000000000000    0.0000000000000000   12.9956992448922470
   Ti   O 
    64   127
Direct
  0.2492572516573475  0.1250106282248140  0.1091886516334384
  0.9999997852723439  0.9999984314536903  0.1092441522032459
  0.9999996031472449  0.1250226824223191  0.3593777893660146
  0.2501433318734954  0.9999985606717843  0.3592167358535221
  0.2499106107739451  0.1249813293031465  0.6092484756213921
  0.9999996230998107  0.0000002767294873  0.6094343824122745
  0.0000009096115434  0.1250084390433841  0.8592493573794471
  0.2501284562390822  0.0000081275700552  0.8594391032465722
  0.2499774190106834  0.3751518393041948  0.1095117235727443
  0.9999994321537500  0.2503206527396813  0.1093251093576555
  0.9999992237272366  0.3751417478581374  0.3591806112515030
  0.2497566479905231  0.2497893483180107  0.3595066943518077
  0.2493480698179411  0.3752712820413677  0.6085501727713947
  0.0000006139243496  0.2498635832159550  0.6093917734277241
  0.0000033045503258  0.3750844763722796  0.8592358506628130
  0.2499465400945695  0.2500260960097052  0.8592056956070593
  0.2499782081075921  0.6248484326211425  0.1095127168057388
  0.0000006784661011  0.4999991964995942  0.1092029711542466
  0.0000001493995043  0.6248575468210191  0.3591807527547743
  0.2511332815825611  0.4999982939527357  0.3594442845295447
  0.2493515733177034  0.6247285828183919  0.6085484398591774
  0.0000022547138272  0.5000032928412779  0.6094249326510024
  0.0000000324323466  0.6249144261808581  0.8592362821369832
  0.2502222841248098  0.4999986422116294  0.8593105346956236
  0.2492642522183957  0.8749907204412111  0.1091892659663714
  0.0000007631124603  0.7496792422357572  0.1093250374073591
  0.9999988614561772  0.8749753353782310  0.3593773063903143
  0.2497556714817435  0.7502115715847282  0.3595063111022583
  0.2499073068509290  0.8750177780099406  0.6092466430901879
  0.0000006299988016  0.7501311598415725  0.6093916523546312
  0.0000039071352163  0.8749910147332827  0.8592490984213086
  0.2499380541793954  0.7499653968148436  0.8592070851261795
  0.7507434419343610  0.1250093107174166  0.1091907267499224
  0.4999986411477408  0.0000120332685043  0.1070303691557513
  0.4999957344611019  0.1193944977293171  0.3613525891736700
  0.7498541622418742  0.0000009544642268  0.3592169813445949
  0.7500896044201610  0.1249820992283688  0.6092473066834785
  0.4999988564695244  0.0000060283522814  0.6099783828055649
  0.5000517931345101  0.1233513875980421  0.8550957843282347
  0.7498890318499036  0.9999881094420147  0.8594383787436399
  0.7500220417562176  0.3751521722584741  0.1095118574313645
  0.4999990908203600  0.2482212552567660  0.1023387550867341
  0.5000004009511585  0.3590002982390672  0.3420794594658148
  0.7502410288636270  0.2497867228042239  0.3595045489996238
  0.7506695042330946  0.3752748558070493  0.6085417865210374
  0.5000009946396347  0.2510846008092216  0.6043290826300733
  0.4999960129497438  0.3703171734820287  0.8626293362961377
  0.7500719974210028  0.2500450486984249  0.8592041174084812
  0.7500214024772305  0.6248481534309107  0.1095119891876166
  0.4999999359791047  0.5000016133408849  0.1070226991302050
  0.4999997263584746  0.6410173245067625  0.3421018143443249
  0.7488660476175113  0.4999984659974430  0.3594407453158865
  0.7506477213405631  0.6247286955200551  0.6085527260179759
  0.5000012302026846  0.5000052011903549  0.6295935456887563
  0.4999987992960655  0.6297072211436827  0.8626250093914791
  0.7497744798421166  0.5000019812731864  0.8593087715436738
  0.7507313076844966  0.8749831313153749  0.1091899584907381
  0.4999996884013314  0.7517958348216212  0.1023256223100475
  0.5000000444565416  0.8805554633033523  0.3612922241247389
  0.7502435352165762  0.7502115983783852  0.3595064027114105
  0.7500919486274924  0.8750164005676453  0.6092442854622959
  0.4999988973472327  0.7489302874582009  0.6043555637262727
  0.4999923699072184  0.8767050188604841  0.8551302967692038
  0.7500587294163736  0.7499618989773609  0.8592070444919955
  0.0980535540691676  0.1250195207703797  0.1093726294665203
  0.4021846299544265  0.1248701331094537  0.1071894121426382
  0.2499744337447467  0.9999992437815592  0.0109694256445962
  0.2504974352818294  0.9999994925202316  0.2070956893117355
  0.3485705434694069  0.1246678658743576  0.3596008078848811
  0.1525538855339335  0.1256612262649384  0.3593782518896447
  0.9999997406925090  0.9999994189111021  0.2615500752460065
  0.9999998035889490  0.9999985749651543  0.4572438045833138
  0.0981735033876348  0.1251378973373747  0.6094484017187085
  0.4027591441887282  0.1262921341746548  0.6072347742549766
  0.2502557150241529  0.9999991449220929  0.5112593578218494
  0.2513255470529145  0.9999985608800941  0.7067514349084902
  0.3486412494730686  0.1251642177657715  0.8582036870703931
  0.1524770429114781  0.1252047936319514  0.8586032769240504
  0.9999993969226963  0.9999993550600621  0.7612691325995797
  0.9999980773189705  0.9999992511245566  0.9571898665065603
  0.0980774982774832  0.3749352124082392  0.1095015111649715
  0.4027271957521918  0.3746608489445933  0.1113292269283122
  0.2504644811720382  0.2502528854371917  0.0112609203298817
  0.2513277692657709  0.2499278256719393  0.2075299391228427
  0.3515786928201692  0.3764775258934279  0.3614936779427680
  0.1532360441619929  0.3748911787318647  0.3587035271934909
  0.9999997817926385  0.2499806549770796  0.2614650279673612
  0.9999982689293532  0.2502610116838966  0.4571828748831592
  0.0980715914543424  0.3750428549262281  0.6094837502522026
  0.4035275590516534  0.3796712026071347  0.6025327650790047
  0.2501908102264494  0.2501825963012863  0.5110816762438972
  0.2520437168923024  0.2509845686781276  0.7066555913132007
  0.3489227084073789  0.3752282845390127  0.8601248445779959
  0.1524626200729244  0.3751026634018970  0.8588622246196920
  0.9999986509142218  0.2500667014868014  0.7613415791924396
  0.9999983704955966  0.2499372199343952  0.9571658045569649
  0.0980790844877717  0.6250623514085021  0.1095017264427725
  0.4027285079933947  0.6253334656705647  0.1113286980115475
  0.2507521659214902  0.4999986202893680  0.0116524775710189
  0.2506687133028080  0.4999964790828599  0.2075706967392748
  0.3515795326135631  0.6235187504187110  0.3614928834819793
  0.1532362481703871  0.6251067111610951  0.3587031196417527
  0.9999997627757011  0.4999988748299131  0.2614667976453120
  0.9999991278442053  0.4999990690465381  0.4570592163236711
  0.0980710977213377  0.6249555644387712  0.6094837591494908
  0.4035253970247581  0.6203317206151482  0.6025336874498564
  0.2479782326998716  0.4999981450517197  0.5108402405782329
  0.2520227030523827  0.4999990222362953  0.7070158237270405
  0.3489197540676443  0.6247694163470001  0.8601252861096640
  0.1524635449912850  0.6248968683277170  0.8588616076726652
  0.9999986530140603  0.4999985179649258  0.7613010966855214
  0.9999990637034060  0.4999990235197913  0.9572466645111675
  0.0980523568245175  0.8749785161372188  0.1093730885690221
  0.4021866887762187  0.8751298120037774  0.1071914452577332
  0.2504635195971971  0.7497435966459776  0.0112602581034409
  0.2513281809450305  0.7500683183187675  0.2075303605190157
  0.3485710622386904  0.8753301491044070  0.3595984368226581
  0.1525544342383469  0.8743369098331115  0.3593780254159569
  0.9999995079553088  0.7500171792314134  0.2614647860429642
  0.9999990546287378  0.7497369292076499  0.4571827907294264
  0.0981749657801672  0.8748620157170350  0.6094477258998978
  0.4027581484480791  0.8737108581859587  0.6072353511084216
  0.2501901890889258  0.7498169658580736  0.5110818493295071
  0.2520439251591995  0.7490157219319968  0.7066554001182936
  0.3486373989412144  0.8748352297318078  0.8582032231287542
  0.1524781844749512  0.8747925302938810  0.8586032690422982
  0.9999990510834209  0.7499324597643167  0.7613426646209192
  0.9999984485075615  0.7500613672050065  0.9571654602656920
  0.5978129644158301  0.1248719958482383  0.1071881548840423
  0.9019442235909949  0.1250191572116108  0.1093736031806287
  0.7500231297493656  0.0000014264181942  0.0109657862666310
  0.7494998199977161  0.0000001146077082  0.2070944903191005
  0.8474458229976989  0.1256612830126684  0.3593770128857798
  0.6514282347935563  0.1246679466252587  0.3596015981505758
  0.4999995066384741  0.0000017124995821  0.2600929619985379
  0.4999990109512567  0.9999856444689712  0.4586656402439147
  0.5972403527934276  0.1262925892535023  0.6072338100971351
  0.9018243412861651  0.1251375157160552  0.6094486324305066
  0.7497451582539512  0.9999990321106509  0.5112598673803674
  0.7486719283634784  0.0000004522790107  0.7067540098643690
  0.8475174187550110  0.1252058183327165  0.8585998244015443
  0.6513622682219520  0.1251638232189052  0.8582043595009807
  0.5000021802463195  0.0000100716296387  0.7583040853942293
  0.5000012708333585  0.0000038689415263  0.9546659073950181
  0.5972710423480123  0.3746596873452859  0.1113289311364980
  0.9019193468602893  0.3749355132955685  0.1095019293416470
  0.7495344387916845  0.2502524113493223  0.0112590255889131
  0.7486705025304872  0.2499278741865680  0.2075289527753199
  0.8467631860573022  0.3748909269362244  0.3587028206025096
  0.6484210986887220  0.3764784757998854  0.3614936111157903
  0.4999982582576621  0.2423528208292041  0.2560541685656545
  0.5000033896236147  0.2518056214138085  0.4532473371810894
  0.5964715128293818  0.3796702760082269  0.6025316695053959
  0.9019276923370256  0.3750434326399414  0.6094833926719048
  0.7498097465191407  0.2501826161552430  0.5110808901873014
  0.7479543481260791  0.2509842015318924  0.7066564145970915
  0.8475336441388279  0.3751000398022342  0.8588618992985175
  0.6510791658318453  0.3752271518159915  0.8601248835005535
  0.5000020772001221  0.2528413147541002  0.7592510465071811
  0.4999995830087016  0.2481489694779100  0.9560188752665653
  0.5972727097178918  0.6253349182355805  0.1113291421791800
  0.9019197310775908  0.6250621705159531  0.1095019706943106
  0.7492465722088681  0.4999987413716411  0.0116518331021425
  0.7493272588497533  0.4999992578183168  0.2075712586540490
  0.8467633403716306  0.6251065737683064  0.3587025043311982
  0.6484188462306548  0.6235196719245408  0.3614938903774885
  0.4999996171659760  0.4999993964989855  0.2710917729979698
  0.5964743018481968  0.6203327427598992  0.6025330395638946
  0.9019280035648976  0.6249549988455811  0.6094845004302272
  0.7520207858150698  0.4999986791564623  0.5108378671239038
  0.7479775297976090  0.4999984099110009  0.7070151522832333
  0.8475345752851311  0.6248976795622312  0.8588617650842494
  0.6510798890009895  0.6247702748825859  0.8601252501847441
  0.4999994067203772  0.4999990760391455  0.7662797299078861
  0.4999998246605060  0.4999977340618784  0.9598142898990503
  0.5978118547700078  0.8751297232080333  0.1071908958140284
  0.9019455164638046  0.8749791616375191  0.1093730111267632
  0.7495345304127383  0.7497447707062435  0.0112589401274761
  0.7486697683717338  0.7500699188759583  0.2075298161559616
  0.8474447831170551  0.8743367864540446  0.3593765782365779
  0.6514281213446225  0.8753289473774615  0.3595995296190253
  0.4999998072955592  0.7576417079941535  0.2560478037070197
  0.4999945377130501  0.7481914714333726  0.4532418133986127
  0.5972413658131472  0.8737102450106988  0.6072347801589046
  0.9018243256044798  0.8748623155125728  0.6094496978088699
  0.7498097175245206  0.7498169850565617  0.5110819810425440
  0.7479549030448140  0.7490155530338640  0.7066570478964209
  0.8475171621073301  0.8747955216060603  0.8586014298200766
  0.6513623357590745  0.8748373910836591  0.8582032057206064
  0.4999994057920318  0.7471586558941468  0.7592516864917727
  0.4999997061538579  0.7518585354463809  0.9560170739243006
 
  0.00000000E+00  0.00000000E+00  0.00000000E+00
  0.00000000E+00  0.00000000E+00  0.00000000E+00
  0.00000000E+00  0.00000000E+00  0.00000000E+00
  0.00000000E+00  0.00000000E+00  0.00000000E+00
  0.00000000E+00  0.00000000E+00  0.00000000E+00
  0.00000000E+00  0.00000000E+00  0.00000000E+00
  0.00000000E+00  0.00000000E+00  0.00000000E+00
  0.00000000E+00  0.00000000E+00  0.00000000E+00
  0.00000000E+00  0.00000000E+00  0.00000000E+00
  0.00000000E+00  0.00000000E+00  0.00000000E+00
  0.00000000E+00  0.00000000E+00  0.00000000E+00
  0.00000000E+00  0.00000000E+00  0.00000000E+00
  0.00000000E+00  0.00000000E+00  0.00000000E+00
  0.00000000E+00  0.00000000E+00  0.00000000E+00
  0.00000000E+00  0.00000000E+00  0.00000000E+00
  0.00000000E+00  0.00000000E+00  0.00000000E+00
  0.00000000E+00  0.00000000E+00  0.00000000E+00
  0.00000000E+00  0.00000000E+00  0.00000000E+00
  0.00000000E+00  0.00000000E+00  0.00000000E+00
  0.00000000E+00  0.00000000E+00  0.00000000E+00
  0.00000000E+00  0.00000000E+00  0.00000000E+00
  0.00000000E+00  0.00000000E+00  0.00000000E+00
  0.00000000E+00  0.00000000E+00  0.00000000E+00
  0.00000000E+00  0.00000000E+00  0.00000000E+00
  0.00000000E+00  0.00000000E+00  0.00000000E+00
  0.00000000E+00  0.00000000E+00  0.00000000E+00
  0.00000000E+00  0.00000000E+00  0.00000000E+00
  0.00000000E+00  0.00000000E+00  0.00000000E+00
  0.00000000E+00  0.00000000E+00  0.00000000E+00
  0.00000000E+00  0.00000000E+00  0.00000000E+00
  0.00000000E+00  0.00000000E+00  0.00000000E+00
  0.00000000E+00  0.00000000E+00  0.00000000E+00
  0.00000000E+00  0.00000000E+00  0.00000000E+00
  0.00000000E+00  0.00000000E+00  0.00000000E+00
  0.00000000E+00  0.00000000E+00  0.00000000E+00
  0.00000000E+00  0.00000000E+00  0.00000000E+00
  0.00000000E+00  0.00000000E+00  0.00000000E+00
  0.00000000E+00  0.00000000E+00  0.00000000E+00
  0.00000000E+00  0.00000000E+00  0.00000000E+00
  0.00000000E+00  0.00000000E+00  0.00000000E+00
  0.00000000E+00  0.00000000E+00  0.00000000E+00
  0.00000000E+00  0.00000000E+00  0.00000000E+00
  0.00000000E+00  0.00000000E+00  0.00000000E+00
  0.00000000E+00  0.00000000E+00  0.00000000E+00
  0.00000000E+00  0.00000000E+00  0.00000000E+00
  0.00000000E+00  0.00000000E+00  0.00000000E+00
  0.00000000E+00  0.00000000E+00  0.00000000E+00
  0.00000000E+00  0.00000000E+00  0.00000000E+00
  0.00000000E+00  0.00000000E+00  0.00000000E+00
  0.00000000E+00  0.00000000E+00  0.00000000E+00
  0.00000000E+00  0.00000000E+00  0.00000000E+00
  0.00000000E+00  0.00000000E+00  0.00000000E+00
  0.00000000E+00  0.00000000E+00  0.00000000E+00
  0.00000000E+00  0.00000000E+00  0.00000000E+00
  0.00000000E+00  0.00000000E+00  0.00000000E+00
  0.00000000E+00  0.00000000E+00  0.00000000E+00
  0.00000000E+00  0.00000000E+00  0.00000000E+00
  0.00000000E+00  0.00000000E+00  0.00000000E+00
  0.00000000E+00  0.00000000E+00  0.00000000E+00
  0.00000000E+00  0.00000000E+00  0.00000000E+00
  0.00000000E+00  0.00000000E+00  0.00000000E+00
  0.00000000E+00  0.00000000E+00  0.00000000E+00
  0.00000000E+00  0.00000000E+00  0.00000000E+00
  0.00000000E+00  0.00000000E+00  0.00000000E+00
  0.00000000E+00  0.00000000E+00  0.00000000E+00
  0.00000000E+00  0.00000000E+00  0.00000000E+00
  0.00000000E+00  0.00000000E+00  0.00000000E+00
  0.00000000E+00  0.00000000E+00  0.00000000E+00
  0.00000000E+00  0.00000000E+00  0.00000000E+00
  0.00000000E+00  0.00000000E+00  0.00000000E+00
  0.00000000E+00  0.00000000E+00  0.00000000E+00
  0.00000000E+00  0.00000000E+00  0.00000000E+00
  0.00000000E+00  0.00000000E+00  0.00000000E+00
  0.00000000E+00  0.00000000E+00  0.00000000E+00
  0.00000000E+00  0.00000000E+00  0.00000000E+00
  0.00000000E+00  0.00000000E+00  0.00000000E+00
  0.00000000E+00  0.00000000E+00  0.00000000E+00
  0.00000000E+00  0.00000000E+00  0.00000000E+00
  0.00000000E+00  0.00000000E+00  0.00000000E+00
  0.00000000E+00  0.00000000E+00  0.00000000E+00
  0.00000000E+00  0.00000000E+00  0.00000000E+00
  0.00000000E+00  0.00000000E+00  0.00000000E+00
  0.00000000E+00  0.00000000E+00  0.00000000E+00
  0.00000000E+00  0.00000000E+00  0.00000000E+00
  0.00000000E+00  0.00000000E+00  0.00000000E+00
  0.00000000E+00  0.00000000E+00  0.00000000E+00
  0.00000000E+00  0.00000000E+00  0.00000000E+00
  0.00000000E+00  0.00000000E+00  0.00000000E+00
  0.00000000E+00  0.00000000E+00  0.00000000E+00
  0.00000000E+00  0.00000000E+00  0.00000000E+00
  0.00000000E+00  0.00000000E+00  0.00000000E+00
  0.00000000E+00  0.00000000E+00  0.00000000E+00
  0.00000000E+00  0.00000000E+00  0.00000000E+00
  0.00000000E+00  0.00000000E+00  0.00000000E+00
  0.00000000E+00  0.00000000E+00  0.00000000E+00
  0.00000000E+00  0.00000000E+00  0.00000000E+00
  0.00000000E+00  0.00000000E+00  0.00000000E+00
  0.00000000E+00  0.00000000E+00  0.00000000E+00
  0.00000000E+00  0.00000000E+00  0.00000000E+00
  0.00000000E+00  0.00000000E+00  0.00000000E+00
  0.00000000E+00  0.00000000E+00  0.00000000E+00
  0.00000000E+00  0.00000000E+00  0.00000000E+00
  0.00000000E+00  0.00000000E+00  0.00000000E+00
  0.00000000E+00  0.00000000E+00  0.00000000E+00
  0.00000000E+00  0.00000000E+00  0.00000000E+00
  0.00000000E+00  0.00000000E+00  0.00000000E+00
  0.00000000E+00  0.00000000E+00  0.00000000E+00
  0.00000000E+00  0.00000000E+00  0.00000000E+00
  0.00000000E+00  0.00000000E+00  0.00000000E+00
  0.00000000E+00  0.00000000E+00  0.00000000E+00
  0.00000000E+00  0.00000000E+00  0.00000000E+00
  0.00000000E+00  0.00000000E+00  0.00000000E+00
  0.00000000E+00  0.00000000E+00  0.00000000E+00
  0.00000000E+00  0.00000000E+00  0.00000000E+00
  0.00000000E+00  0.00000000E+00  0.00000000E+00
  0.00000000E+00  0.00000000E+00  0.00000000E+00
  0.00000000E+00  0.00000000E+00  0.00000000E+00
  0.00000000E+00  0.00000000E+00  0.00000000E+00
  0.00000000E+00  0.00000000E+00  0.00000000E+00
  0.00000000E+00  0.00000000E+00  0.00000000E+00
  0.00000000E+00  0.00000000E+00  0.00000000E+00
  0.00000000E+00  0.00000000E+00  0.00000000E+00
  0.00000000E+00  0.00000000E+00  0.00000000E+00
  0.00000000E+00  0.00000000E+00  0.00000000E+00
  0.00000000E+00  0.00000000E+00  0.00000000E+00
  0.00000000E+00  0.00000000E+00  0.00000000E+00
  0.00000000E+00  0.00000000E+00  0.00000000E+00
  0.00000000E+00  0.00000000E+00  0.00000000E+00
  0.00000000E+00  0.00000000E+00  0.00000000E+00
  0.00000000E+00  0.00000000E+00  0.00000000E+00
  0.00000000E+00  0.00000000E+00  0.00000000E+00
  0.00000000E+00  0.00000000E+00  0.00000000E+00
  0.00000000E+00  0.00000000E+00  0.00000000E+00
  0.00000000E+00  0.00000000E+00  0.00000000E+00
  0.00000000E+00  0.00000000E+00  0.00000000E+00
  0.00000000E+00  0.00000000E+00  0.00000000E+00
  0.00000000E+00  0.00000000E+00  0.00000000E+00
  0.00000000E+00  0.00000000E+00  0.00000000E+00
  0.00000000E+00  0.00000000E+00  0.00000000E+00
  0.00000000E+00  0.00000000E+00  0.00000000E+00
  0.00000000E+00  0.00000000E+00  0.00000000E+00
  0.00000000E+00  0.00000000E+00  0.00000000E+00
  0.00000000E+00  0.00000000E+00  0.00000000E+00
  0.00000000E+00  0.00000000E+00  0.00000000E+00
  0.00000000E+00  0.00000000E+00  0.00000000E+00
  0.00000000E+00  0.00000000E+00  0.00000000E+00
  0.00000000E+00  0.00000000E+00  0.00000000E+00
  0.00000000E+00  0.00000000E+00  0.00000000E+00
  0.00000000E+00  0.00000000E+00  0.00000000E+00
  0.00000000E+00  0.00000000E+00  0.00000000E+00
  0.00000000E+00  0.00000000E+00  0.00000000E+00
  0.00000000E+00  0.00000000E+00  0.00000000E+00
  0.00000000E+00  0.00000000E+00  0.00000000E+00
  0.00000000E+00  0.00000000E+00  0.00000000E+00
  0.00000000E+00  0.00000000E+00  0.00000000E+00
  0.00000000E+00  0.00000000E+00  0.00000000E+00
  0.00000000E+00  0.00000000E+00  0.00000000E+00
  0.00000000E+00  0.00000000E+00  0.00000000E+00
  0.00000000E+00  0.00000000E+00  0.00000000E+00
  0.00000000E+00  0.00000000E+00  0.00000000E+00
  0.00000000E+00  0.00000000E+00  0.00000000E+00
  0.00000000E+00  0.00000000E+00  0.00000000E+00
  0.00000000E+00  0.00000000E+00  0.00000000E+00
  0.00000000E+00  0.00000000E+00  0.00000000E+00
  0.00000000E+00  0.00000000E+00  0.00000000E+00
  0.00000000E+00  0.00000000E+00  0.00000000E+00
  0.00000000E+00  0.00000000E+00  0.00000000E+00
  0.00000000E+00  0.00000000E+00  0.00000000E+00
  0.00000000E+00  0.00000000E+00  0.00000000E+00
  0.00000000E+00  0.00000000E+00  0.00000000E+00
  0.00000000E+00  0.00000000E+00  0.00000000E+00
  0.00000000E+00  0.00000000E+00  0.00000000E+00
  0.00000000E+00  0.00000000E+00  0.00000000E+00
  0.00000000E+00  0.00000000E+00  0.00000000E+00
  0.00000000E+00  0.00000000E+00  0.00000000E+00
  0.00000000E+00  0.00000000E+00  0.00000000E+00
  0.00000000E+00  0.00000000E+00  0.00000000E+00
  0.00000000E+00  0.00000000E+00  0.00000000E+00
  0.00000000E+00  0.00000000E+00  0.00000000E+00
  0.00000000E+00  0.00000000E+00  0.00000000E+00
  0.00000000E+00  0.00000000E+00  0.00000000E+00
  0.00000000E+00  0.00000000E+00  0.00000000E+00
  0.00000000E+00  0.00000000E+00  0.00000000E+00
  0.00000000E+00  0.00000000E+00  0.00000000E+00
  0.00000000E+00  0.00000000E+00  0.00000000E+00
  0.00000000E+00  0.00000000E+00  0.00000000E+00
  0.00000000E+00  0.00000000E+00  0.00000000E+00
  0.00000000E+00  0.00000000E+00  0.00000000E+00
  0.00000000E+00  0.00000000E+00  0.00000000E+00
  0.00000000E+00  0.00000000E+00  0.00000000E+00
  0.00000000E+00  0.00000000E+00  0.00000000E+00
