Ti  O                                   
   1.00000000000000     
    12.9956992448922488    0.0000000000000000    0.0000000000000000
     0.0000000000000000   11.7684137168329119    0.0000000000000000
     0.0000000000000000    0.0000000000000000   12.9956992448922470
   Ti   O 
    64   127
Direct
  0.2492572516573464  0.1250106282248130  0.1091886516334363
 -0.0000002147276586 -0.0000015685463106  0.1092441522032442
 -0.0000003968527521  0.1250226824223199  0.3593777893660168
  0.2501433318734928 -0.0000014393282170  0.3592167358535256
  0.2499106107739452  0.1249813293031453  0.6092484756213892
 -0.0000003769001878  0.0000002767294862  0.6094343824122771
  0.0000009096115406  0.1250084390433830  0.8592493573794442
  0.2501284562390816  0.0000081275700518  0.8594391032465747
  0.2499774190106851  0.3751518393041925  0.1095117235727430
 -0.0000005678462496  0.2503206527396781  0.1093251093576552
 -0.0000007762727645  0.3751417478581394  0.3591806112515037
  0.2497566479905219  0.2497893483180138  0.3595066943518049
  0.2493480698179432  0.3752712820413711  0.6085501727713939
  0.0000006139243488  0.2498635832159571  0.6093917734277243
  0.0000033045503223  0.3750844763722803  0.8592358506628109
  0.2499465400945707  0.2500260960097018  0.8592056956070578
  0.2499782081075907  0.6248484326211450  0.1095127168057416
  0.0000006784660977  0.4999991964995941  0.1092029711542499
  0.0000001493995077  0.6248575468210181  0.3591807527547732
  0.2511332815825630  0.4999982939527365  0.3594442845295465
  0.2493515733177001  0.6247285828183916  0.6085484398591763
  0.0000022547138292  0.5000032928412759  0.6094249326510037
  0.0000000324323446  0.6249144261808608  0.8592362821369864
  0.2502222841248131  0.4999986422116297  0.8593105346956251
  0.2492642522183946  0.8749907204412140  0.1091892659663679
  0.0000007631124622  0.7496792422357538  0.1093250374073585
 -0.0000011385438201  0.8749753353782317  0.3593773063903110
  0.2497556714817455  0.7502115715847291  0.3595063111022577
  0.2499073068509321  0.8750177780099401  0.6092466430901881
  0.0000006299988010  0.7501311598415712  0.6093916523546313
  0.0000039071352133  0.8749910147332803  0.8592490984213105
  0.2499380541793925  0.7499653968148411  0.8592070851261819
  0.7507434419343642  0.1250093107174188  0.1091907267499201
  0.4999986411477430  0.0000120332685012  0.1070303691557526
  0.4999957344611050  0.1193944977293203  0.3613525891736721
  0.7498541622418754  0.0000009544642241  0.3592169813445980
  0.7500896044201604  0.1249820992283657  0.6092473066834811
  0.4999988564695266  0.0000060283522816  0.6099783828055649
  0.5000517931345079  0.1233513875980452  0.8550957843282367
  0.7498890318499034 -0.0000118905579822  0.8594383787436417
  0.7500220417562182  0.3751521722584709  0.1095118574313673
  0.4999990908203566  0.2482212552567658  0.1023387550867365
  0.5000004009511594  0.3590002982390677  0.3420794594658123
  0.7502410288636238  0.2497867228042207  0.3595045489996237
  0.7506695042330948  0.3752748558070508  0.6085417865210341
  0.5000009946396381  0.2510846008092186  0.6043290826300753
  0.4999960129497466  0.3703171734820259  0.8626293362961410
  0.7500719974210037  0.2500450486984246  0.8592041174084812
  0.7500214024772301  0.6248481534309114  0.1095119891876160
  0.4999999359791027  0.5000016133408822  0.1070226991302069
  0.4999997263584764  0.6410173245067615  0.3421018143443276
  0.7488660476175127  0.4999984659974421  0.3594407453158858
  0.7506477213405606  0.6247286955200521  0.6085527260179792
  0.5000012302026834  0.5000052011903545  0.6295935456887540
  0.4999987992960690  0.6297072211436854  0.8626250093914818
  0.7497744798421174  0.5000019812731895  0.8593087715436754
  0.7507313076844963  0.8749831313153773  0.1091899584907396
  0.4999996884013312  0.7517958348216229  0.1023256223100500
  0.5000000444565422  0.8805554633033501  0.3612922241247355
  0.7502435352165728  0.7502115983783856  0.3595064027114071
  0.7500919486274897  0.8750164005676474  0.6092442854622980
  0.4999988973472356  0.7489302874582039  0.6043555637262694
  0.4999923699072149  0.8767050188604846  0.8551302967692040
  0.7500587294163755  0.7499618989773602  0.8592070444919956
  0.0980535540691683  0.1250195207703811  0.1093726294665222
  0.4021846299544240  0.1248701331094507  0.1071894121426375
  0.2499744337447465 -0.0000007562184382  0.0109694256445951
  0.2504974352818313 -0.0000005074797716  0.2070956893117374
  0.3485705434694081  0.1246678658743541  0.3596008078848845
  0.1525538855339307  0.1256612262649359  0.3593782518896433
 -0.0000002593074935 -0.0000005810888992  0.2615500752460078
 -0.0000001964110530 -0.0000014250348490  0.4572438045833159
  0.0981735033876373  0.1251378973373745  0.6094484017187058
  0.4027591441887284  0.1262921341746539  0.6072347742549777
  0.2502557150241496 -0.0000008550779053  0.5112593578218496
  0.2513255470529147 -0.0000014391199041  0.7067514349084868
  0.3486412494730675  0.1251642177657696  0.8582036870703923
  0.1524770429114756  0.1252047936319518  0.8586032769240483
 -0.0000006030773051 -0.0000006449399377  0.7612691325995812
 -0.0000019226810260 -0.0000007488754469  0.9571898665065590
  0.0980774982774812  0.3749352124082402  0.1095015111649733
  0.4027271957521911  0.3746608489445907  0.1113292269283148
  0.2504644811720386  0.2502528854371950  0.0112609203298797
  0.2513277692657674  0.2499278256719411  0.2075299391228426
  0.3515786928201671  0.3764775258934309  0.3614936779427694
  0.1532360441619963  0.3748911787318627  0.3587035271934886
 -0.0000002182073588  0.2499806549770787  0.2614650279673598
 -0.0000017310706496  0.2502610116838958  0.4571828748831621
  0.0980715914543412  0.3750428549262268  0.6094837502521991
  0.4035275590516567  0.3796712026071313  0.6025327650790024
  0.2501908102264468  0.2501825963012875  0.5110816762438996
  0.2520437168923015  0.2509845686781281  0.7066555913131995
  0.3489227084073819  0.3752282845390106  0.8601248445779958
  0.1524626200729253  0.3751026634018944  0.8588622246196905
 -0.0000013490857771  0.2500667014868033  0.7613415791924372
 -0.0000016295044040  0.2499372199343932  0.9571658045569684
  0.0980790844877695  0.6250623514085002  0.1095017264427698
  0.4027285079933931  0.6253334656705639  0.1113286980115471
  0.2507521659214885  0.4999986202893684  0.0116524775710212
  0.2506687133028098  0.4999964790828597  0.2075706967392743
  0.3515795326135625  0.6235187504187087  0.3614928834819788
  0.1532362481703857  0.6251067111610954  0.3587031196417551
 -0.0000002372242992  0.4999988748299137  0.2614667976453147
 -0.0000008721557944  0.4999990690465381  0.4570592163236719
  0.0980710977213376  0.6249555644387722  0.6094837591494882
  0.4035253970247589  0.6203317206151474  0.6025336874498570
  0.2479782326998691  0.4999981450517171  0.5108402405782317
  0.2520227030523845  0.4999990222362929  0.7070158237270411
  0.3489197540676418  0.6247694163470018  0.8601252861096645
  0.1524635449912834  0.6248968683277137  0.8588616076726634
 -0.0000013469859381  0.4999985179649232  0.7613010966855230
 -0.0000009362965919  0.4999990235197919  0.9572466645111662
  0.0980523568245185  0.8749785161372218  0.1093730885690219
  0.4021866887762187  0.8751298120037790  0.1071914452577311
  0.2504635195971956  0.7497435966459810  0.0112602581034411
  0.2513281809450299  0.7500683183187699  0.2075303605190158
  0.3485710622386894  0.8753301491044074  0.3595984368226562
  0.1525544342383456  0.8743369098331129  0.3593780254159565
 -0.0000004920446890  0.7500171792314156  0.2614647860429674
 -0.0000009453712653  0.7497369292076493  0.4571827907294237
  0.0981749657801679  0.8748620157170345  0.6094477258998984
  0.4027581484480786  0.8737108581859604  0.6072353511084183
  0.2501901890889245  0.7498169658580770  0.5110818493295076
  0.2520439251591987  0.7490157219319988  0.7066554001182962
  0.3486373989412178  0.8748352297318062  0.8582032231287536
  0.1524781844749538  0.8747925302938828  0.8586032690422986
 -0.0000009489165778  0.7499324597643132  0.7613426646209166
 -0.0000015514924367  0.7500613672050044  0.9571654602656907
  0.5978129644158310  0.1248719958482378  0.1071881548840436
  0.9019442235909924  0.1250191572116131  0.1093736031806271
  0.7500231297493635  0.0000014264181936  0.0109657862666332
  0.7494998199977191  0.0000001146077106  0.2070944903191035
  0.8474458229977002  0.1256612830126687  0.3593770128857820
  0.6514282347935559  0.1246679466252616  0.3596015981505741
  0.4999995066384707  0.0000017124995826  0.2600929619985359
  0.4999990109512586 -0.0000143555310301  0.4586656402439152
  0.5972403527934264  0.1262925892535009  0.6072338100971378
  0.9018243412861647  0.1251375157160574  0.6094486324305081
  0.7497451582539539 -0.0000009678893500  0.5112598673803643
  0.7486719283634774  0.0000004522790112  0.7067540098643658
  0.8475174187550101  0.1252058183327141  0.8585998244015411
  0.6513622682219531  0.1251638232189036  0.8582043595009800
  0.5000021802463205  0.0000100716296389  0.7583040853942329
  0.5000012708333587  0.0000038689415239  0.9546659073950164
  0.5972710423480142  0.3746596873452887  0.1113289311364962
  0.9019193468602902  0.3749355132955673  0.1095019293416466
  0.7495344387916850  0.2502524113493205  0.0112590255889157
  0.7486705025304836  0.2499278741865700  0.2075289527753206
  0.8467631860573057  0.3748909269362246  0.3587028206025104
  0.6484210986887248  0.3764784757998869  0.3614936111157933
  0.4999982582576654  0.2423528208292076  0.2560541685656556
  0.5000033896236156  0.2518056214138096  0.4532473371810860
  0.5964715128293846  0.3796702760082267  0.6025316695053935
  0.9019276923370240  0.3750434326399433  0.6094833926719079
  0.7498097465191397  0.2501826161552426  0.5110808901873000
  0.7479543481260796  0.2509842015318892  0.7066564145970925
  0.8475336441388313  0.3751000398022370  0.8588618992985143
  0.6510791658318447  0.3752271518159938  0.8601248835005525
  0.5000020772001206  0.2528413147541025  0.7592510465071785
  0.4999995830087013  0.2481489694779086  0.9560188752665630
  0.5972727097178929  0.6253349182355816  0.1113291421791805
  0.9019197310775939  0.6250621705159530  0.1095019706943090
  0.7492465722088715  0.4999987413716435  0.0116518331021416
  0.7493272588497538  0.4999992578183199  0.2075712586540482
  0.8467633403716277  0.6251065737683053  0.3587025043311977
  0.6484188462306573  0.6235196719245414  0.3614938903774892
  0.4999996171659763  0.4999993964989849  0.2710917729979706
  0.5964743018481983  0.6203327427598969  0.6025330395638968
  0.9019280035648989  0.6249549988455825  0.6094845004302284
  0.7520207858150723  0.4999986791564643  0.5108378671239071
  0.7479775297976117  0.4999984099109996  0.7070151522832313
  0.8475345752851317  0.6248976795622313  0.8588617650842485
  0.6510798890009899  0.6247702748825874  0.8601252501847454
  0.4999994067203781  0.4999990760391426  0.7662797299078832
  0.4999998246605054  0.4999977340618773  0.9598142898990503
  0.5978118547700100  0.8751297232080357  0.1071908958140286
  0.9019455164638065  0.8749791616375185  0.1093730111267656
  0.7495345304127380  0.7497447707062442  0.0112589401274755
  0.7486697683717346  0.7500699188759582  0.2075298161559635
  0.8474447831170580  0.8743367864540444  0.3593765782365806
  0.6514281213446228  0.8753289473774621  0.3595995296190247
  0.4999998072955575  0.7576417079941568  0.2560478037070211
  0.4999945377130491  0.7481914714333703  0.4532418133986155
  0.5972413658131506  0.8737102450106996  0.6072347801589054
  0.9018243256044827  0.8748623155125707  0.6094496978088715
  0.7498097175245201  0.7498169850565642  0.5110819810425441
  0.7479549030448115  0.7490155530338624  0.7066570478964198
  0.8475171621073296  0.8747955216060588  0.8586014298200745
  0.6513623357590754  0.8748373910836573  0.8582032057206046
  0.4999994057920338  0.7471586558941448  0.7592516864917758
  0.4999997061538606  0.7518585354463815  0.9560170739242981
 
  0.00000000E+00  0.00000000E+00  0.00000000E+00
  0.00000000E+00  0.00000000E+00  0.00000000E+00
  0.00000000E+00  0.00000000E+00  0.00000000E+00
  0.00000000E+00  0.00000000E+00  0.00000000E+00
  0.00000000E+00  0.00000000E+00  0.00000000E+00
  0.00000000E+00  0.00000000E+00  0.00000000E+00
  0.00000000E+00  0.00000000E+00  0.00000000E+00
  0.00000000E+00  0.00000000E+00  0.00000000E+00
  0.00000000E+00  0.00000000E+00  0.00000000E+00
  0.00000000E+00  0.00000000E+00  0.00000000E+00
  0.00000000E+00  0.00000000E+00  0.00000000E+00
  0.00000000E+00  0.00000000E+00  0.00000000E+00
  0.00000000E+00  0.00000000E+00  0.00000000E+00
  0.00000000E+00  0.00000000E+00  0.00000000E+00
  0.00000000E+00  0.00000000E+00  0.00000000E+00
  0.00000000E+00  0.00000000E+00  0.00000000E+00
  0.00000000E+00  0.00000000E+00  0.00000000E+00
  0.00000000E+00  0.00000000E+00  0.00000000E+00
  0.00000000E+00  0.00000000E+00  0.00000000E+00
  0.00000000E+00  0.00000000E+00  0.00000000E+00
  0.00000000E+00  0.00000000E+00  0.00000000E+00
  0.00000000E+00  0.00000000E+00  0.00000000E+00
  0.00000000E+00  0.00000000E+00  0.00000000E+00
  0.00000000E+00  0.00000000E+00  0.00000000E+00
  0.00000000E+00  0.00000000E+00  0.00000000E+00
  0.00000000E+00  0.00000000E+00  0.00000000E+00
  0.00000000E+00  0.00000000E+00  0.00000000E+00
  0.00000000E+00  0.00000000E+00  0.00000000E+00
  0.00000000E+00  0.00000000E+00  0.00000000E+00
  0.00000000E+00  0.00000000E+00  0.00000000E+00
  0.00000000E+00  0.00000000E+00  0.00000000E+00
  0.00000000E+00  0.00000000E+00  0.00000000E+00
  0.00000000E+00  0.00000000E+00  0.00000000E+00
  0.00000000E+00  0.00000000E+00  0.00000000E+00
  0.00000000E+00  0.00000000E+00  0.00000000E+00
  0.00000000E+00  0.00000000E+00  0.00000000E+00
  0.00000000E+00  0.00000000E+00  0.00000000E+00
  0.00000000E+00  0.00000000E+00  0.00000000E+00
  0.00000000E+00  0.00000000E+00  0.00000000E+00
  0.00000000E+00  0.00000000E+00  0.00000000E+00
  0.00000000E+00  0.00000000E+00  0.00000000E+00
  0.00000000E+00  0.00000000E+00  0.00000000E+00
  0.00000000E+00  0.00000000E+00  0.00000000E+00
  0.00000000E+00  0.00000000E+00  0.00000000E+00
  0.00000000E+00  0.00000000E+00  0.00000000E+00
  0.00000000E+00  0.00000000E+00  0.00000000E+00
  0.00000000E+00  0.00000000E+00  0.00000000E+00
  0.00000000E+00  0.00000000E+00  0.00000000E+00
  0.00000000E+00  0.00000000E+00  0.00000000E+00
  0.00000000E+00  0.00000000E+00  0.00000000E+00
  0.00000000E+00  0.00000000E+00  0.00000000E+00
  0.00000000E+00  0.00000000E+00  0.00000000E+00
  0.00000000E+00  0.00000000E+00  0.00000000E+00
  0.00000000E+00  0.00000000E+00  0.00000000E+00
  0.00000000E+00  0.00000000E+00  0.00000000E+00
  0.00000000E+00  0.00000000E+00  0.00000000E+00
  0.00000000E+00  0.00000000E+00  0.00000000E+00
  0.00000000E+00  0.00000000E+00  0.00000000E+00
  0.00000000E+00  0.00000000E+00  0.00000000E+00
  0.00000000E+00  0.00000000E+00  0.00000000E+00
  0.00000000E+00  0.00000000E+00  0.00000000E+00
  0.00000000E+00  0.00000000E+00  0.00000000E+00
  0.00000000E+00  0.00000000E+00  0.00000000E+00
  0.00000000E+00  0.00000000E+00  0.00000000E+00
  0.00000000E+00  0.00000000E+00  0.00000000E+00
  0.00000000E+00  0.00000000E+00  0.00000000E+00
  0.00000000E+00  0.00000000E+00  0.00000000E+00
  0.00000000E+00  0.00000000E+00  0.00000000E+00
  0.00000000E+00  0.00000000E+00  0.00000000E+00
  0.00000000E+00  0.00000000E+00  0.00000000E+00
  0.00000000E+00  0.00000000E+00  0.00000000E+00
  0.00000000E+00  0.00000000E+00  0.00000000E+00
  0.00000000E+00  0.00000000E+00  0.00000000E+00
  0.00000000E+00  0.00000000E+00  0.00000000E+00
  0.00000000E+00  0.00000000E+00  0.00000000E+00
  0.00000000E+00  0.00000000E+00  0.00000000E+00
  0.00000000E+00  0.00000000E+00  0.00000000E+00
  0.00000000E+00  0.00000000E+00  0.00000000E+00
  0.00000000E+00  0.00000000E+00  0.00000000E+00
  0.00000000E+00  0.00000000E+00  0.00000000E+00
  0.00000000E+00  0.00000000E+00  0.00000000E+00
  0.00000000E+00  0.00000000E+00  0.00000000E+00
  0.00000000E+00  0.00000000E+00  0.00000000E+00
  0.00000000E+00  0.00000000E+00  0.00000000E+00
  0.00000000E+00  0.00000000E+00  0.00000000E+00
  0.00000000E+00  0.00000000E+00  0.00000000E+00
  0.00000000E+00  0.00000000E+00  0.00000000E+00
  0.00000000E+00  0.00000000E+00  0.00000000E+00
  0.00000000E+00  0.00000000E+00  0.00000000E+00
  0.00000000E+00  0.00000000E+00  0.00000000E+00
  0.00000000E+00  0.00000000E+00  0.00000000E+00
  0.00000000E+00  0.00000000E+00  0.00000000E+00
  0.00000000E+00  0.00000000E+00  0.00000000E+00
  0.00000000E+00  0.00000000E+00  0.00000000E+00
  0.00000000E+00  0.00000000E+00  0.00000000E+00
  0.00000000E+00  0.00000000E+00  0.00000000E+00
  0.00000000E+00  0.00000000E+00  0.00000000E+00
  0.00000000E+00  0.00000000E+00  0.00000000E+00
  0.00000000E+00  0.00000000E+00  0.00000000E+00
  0.00000000E+00  0.00000000E+00  0.00000000E+00
  0.00000000E+00  0.00000000E+00  0.00000000E+00
  0.00000000E+00  0.00000000E+00  0.00000000E+00
  0.00000000E+00  0.00000000E+00  0.00000000E+00
  0.00000000E+00  0.00000000E+00  0.00000000E+00
  0.00000000E+00  0.00000000E+00  0.00000000E+00
  0.00000000E+00  0.00000000E+00  0.00000000E+00
  0.00000000E+00  0.00000000E+00  0.00000000E+00
  0.00000000E+00  0.00000000E+00  0.00000000E+00
  0.00000000E+00  0.00000000E+00  0.00000000E+00
  0.00000000E+00  0.00000000E+00  0.00000000E+00
  0.00000000E+00  0.00000000E+00  0.00000000E+00
  0.00000000E+00  0.00000000E+00  0.00000000E+00
  0.00000000E+00  0.00000000E+00  0.00000000E+00
  0.00000000E+00  0.00000000E+00  0.00000000E+00
  0.00000000E+00  0.00000000E+00  0.00000000E+00
  0.00000000E+00  0.00000000E+00  0.00000000E+00
  0.00000000E+00  0.00000000E+00  0.00000000E+00
  0.00000000E+00  0.00000000E+00  0.00000000E+00
  0.00000000E+00  0.00000000E+00  0.00000000E+00
  0.00000000E+00  0.00000000E+00  0.00000000E+00
  0.00000000E+00  0.00000000E+00  0.00000000E+00
  0.00000000E+00  0.00000000E+00  0.00000000E+00
  0.00000000E+00  0.00000000E+00  0.00000000E+00
  0.00000000E+00  0.00000000E+00  0.00000000E+00
  0.00000000E+00  0.00000000E+00  0.00000000E+00
  0.00000000E+00  0.00000000E+00  0.00000000E+00
  0.00000000E+00  0.00000000E+00  0.00000000E+00
  0.00000000E+00  0.00000000E+00  0.00000000E+00
  0.00000000E+00  0.00000000E+00  0.00000000E+00
  0.00000000E+00  0.00000000E+00  0.00000000E+00
  0.00000000E+00  0.00000000E+00  0.00000000E+00
  0.00000000E+00  0.00000000E+00  0.00000000E+00
  0.00000000E+00  0.00000000E+00  0.00000000E+00
  0.00000000E+00  0.00000000E+00  0.00000000E+00
  0.00000000E+00  0.00000000E+00  0.00000000E+00
  0.00000000E+00  0.00000000E+00  0.00000000E+00
  0.00000000E+00  0.00000000E+00  0.00000000E+00
  0.00000000E+00  0.00000000E+00  0.00000000E+00
  0.00000000E+00  0.00000000E+00  0.00000000E+00
  0.00000000E+00  0.00000000E+00  0.00000000E+00
  0.00000000E+00  0.00000000E+00  0.00000000E+00
  0.00000000E+00  0.00000000E+00  0.00000000E+00
  0.00000000E+00  0.00000000E+00  0.00000000E+00
  0.00000000E+00  0.00000000E+00  0.00000000E+00
  0.00000000E+00  0.00000000E+00  0.00000000E+00
  0.00000000E+00  0.00000000E+00  0.00000000E+00
  0.00000000E+00  0.00000000E+00  0.00000000E+00
  0.00000000E+00  0.00000000E+00  0.00000000E+00
  0.00000000E+00  0.00000000E+00  0.00000000E+00
  0.00000000E+00  0.00000000E+00  0.00000000E+00
  0.00000000E+00  0.00000000E+00  0.00000000E+00
  0.00000000E+00  0.00000000E+00  0.00000000E+00
  0.00000000E+00  0.00000000E+00  0.00000000E+00
  0.00000000E+00  0.00000000E+00  0.00000000E+00
  0.00000000E+00  0.00000000E+00  0.00000000E+00
  0.00000000E+00  0.00000000E+00  0.00000000E+00
  0.00000000E+00  0.00000000E+00  0.00000000E+00
  0.00000000E+00  0.00000000E+00  0.00000000E+00
  0.00000000E+00  0.00000000E+00  0.00000000E+00
  0.00000000E+00  0.00000000E+00  0.00000000E+00
  0.00000000E+00  0.00000000E+00  0.00000000E+00
  0.00000000E+00  0.00000000E+00  0.00000000E+00
  0.00000000E+00  0.00000000E+00  0.00000000E+00
  0.00000000E+00  0.00000000E+00  0.00000000E+00
  0.00000000E+00  0.00000000E+00  0.00000000E+00
  0.00000000E+00  0.00000000E+00  0.00000000E+00
  0.00000000E+00  0.00000000E+00  0.00000000E+00
  0.00000000E+00  0.00000000E+00  0.00000000E+00
  0.00000000E+00  0.00000000E+00  0.00000000E+00
  0.00000000E+00  0.00000000E+00  0.00000000E+00
  0.00000000E+00  0.00000000E+00  0.00000000E+00
  0.00000000E+00  0.00000000E+00  0.00000000E+00
  0.00000000E+00  0.00000000E+00  0.00000000E+00
  0.00000000E+00  0.00000000E+00  0.00000000E+00
  0.00000000E+00  0.00000000E+00  0.00000000E+00
  0.00000000E+00  0.00000000E+00  0.00000000E+00
  0.00000000E+00  0.00000000E+00  0.00000000E+00
  0.00000000E+00  0.00000000E+00  0.00000000E+00
  0.00000000E+00  0.00000000E+00  0.00000000E+00
  0.00000000E+00  0.00000000E+00  0.00000000E+00
  0.00000000E+00  0.00000000E+00  0.00000000E+00
  0.00000000E+00  0.00000000E+00  0.00000000E+00
  0.00000000E+00  0.00000000E+00  0.00000000E+00
  0.00000000E+00  0.00000000E+00  0.00000000E+00
  0.00000000E+00  0.00000000E+00  0.00000000E+00
  0.00000000E+00  0.00000000E+00  0.00000000E+00
  0.00000000E+00  0.00000000E+00  0.00000000E+00
  0.00000000E+00  0.00000000E+00  0.00000000E+00
  0.00000000E+00  0.00000000E+00  0.00000000E+00
  0.00000000E+00  0.00000000E+00  0.00000000E+00
  0.00000000E+00  0.00000000E+00  0.00000000E+00
