pymatgen v2020.8.13 with grid density = 1482 / number of atoms
0
Gamma
2 2 1
