Ti  O                                   
   1.00000000000000     
    13.0120215377706696    0.0000000000000000    0.0000000000000000
     0.0000000000000000   11.8401074605833276    0.0000000000000000
     0.0000000000000000    0.0000000000000000   30.5554804540249307
   Ti   O 
    80   159
Selective dynamics
Direct
  0.0000000000000000  0.1250000000000000  0.2870754878597097   F   F   F
  0.7500000000000000  0.0000000000000000  0.2870754878597097   F   F   F
  0.2500000000000000  0.1250000000000000  0.3935377439298549   F   F   F
  0.0000000000000000  0.0000000000000000  0.3935377439298549   F   F   F
  0.0000000000000000  0.1250000000000000  0.5000000000000000   F   F   F
  0.7500000000000000  0.0000000000000000  0.5000000000000000   F   F   F
  0.2490310728231946  0.1249604062310289  0.6044438834725971   T   T   T
  0.0000114945940189  0.0000143195589383  0.6097331546903179   T   T   T
 -0.0000064216461889  0.1249861721029844  0.7193515267105102   T   T   T
  0.7494774276878289 -0.0000018536255507  0.7082829654892279   T   T   T
  0.0000000000000000  0.3750000000000000  0.2870754878597097   F   F   F
  0.7500000000000000  0.2500000000000000  0.2870754878597097   F   F   F
  0.2500000000000000  0.3750000000000000  0.3935377439298549   F   F   F
  0.0000000000000000  0.2500000000000000  0.3935377439298549   F   F   F
  0.0000000000000000  0.3750000000000000  0.5000000000000000   F   F   F
  0.7500000000000000  0.2500000000000000  0.5000000000000000   F   F   F
  0.2483165384517577  0.3750472301607153  0.6045968756013840   T   T   T
  0.0000258428104158  0.2496359979500183  0.6098571926501177   T   T   T
  0.0000010997174500  0.3750447493029095  0.7194944522034997   T   T   T
  0.7499909649537815  0.2497062248606785  0.7087006434670944   T   T   T
  0.0000000000000000  0.6250000000000000  0.2870754878597097   F   F   F
  0.7500000000000000  0.5000000000000000  0.2870754878597097   F   F   F
  0.2500000000000000  0.6250000000000000  0.3935377439298549   F   F   F
  0.0000000000000000  0.5000000000000000  0.3935377439298549   F   F   F
  0.0000000000000000  0.6250000000000000  0.5000000000000000   F   F   F
  0.7500000000000000  0.5000000000000000  0.5000000000000000   F   F   F
  0.2482501398470304  0.6249591165994086  0.6045921743670284   T   T   T
 -0.0000068921234892  0.4999852834263226  0.6097691853273195   T   T   T
 -0.0000186827252342  0.6249491759788707  0.7194952101858849   T   T   T
  0.7476860697736135  0.4999960937198908  0.7082923017032372   T   T   T
  0.0000000000000000  0.8750000000000000  0.2870754878597097   F   F   F
  0.7500000000000000  0.7500000000000000  0.2870754878597097   F   F   F
  0.2500000000000000  0.8750000000000000  0.3935377439298549   F   F   F
  0.0000000000000000  0.7500000000000000  0.3935377439298549   F   F   F
  0.0000000000000000  0.8750000000000000  0.5000000000000000   F   F   F
  0.7500000000000000  0.7500000000000000  0.5000000000000000   F   F   F
  0.2489705356595251  0.8750886961787844  0.6044477840685337   T   T   T
 -0.0000273396448366  0.7503767787353219  0.6098398168826364   T   T   T
 -0.0000227595433264  0.8750065070646051  0.7193456721859960   T   T   T
  0.7499843685851659  0.7502879960970218  0.7087010855388329   T   T   T
  0.5000000000000000  0.1250000000000000  0.2870754878597097   F   F   F
  0.2500000000000000  0.0000000000000000  0.2870754878597097   F   F   F
  0.7500000000000000  0.1250000000000000  0.3935377439298549   F   F   F
  0.5000000000000000  0.0000000000000000  0.3935377439298549   F   F   F
  0.5000000000000000  0.1250000000000000  0.5000000000000000   F   F   F
  0.2500000000000000  0.0000000000000000  0.5000000000000000   F   F   F
  0.7510239160163633  0.1249310083681615  0.6044480315471321   T   T   T
  0.4999827501063894  0.0000849773272439  0.6124362150276244   T   T   T
  0.5000047730419095  0.1212436990469111  0.7232453532875339   T   T   T
  0.2505310312833659 -0.0000057838172663  0.7082865960588967   T   T   T
  0.5000000000000000  0.3750000000000000  0.2870754878597097   F   F   F
  0.2500000000000000  0.2500000000000000  0.2870754878597097   F   F   F
  0.7500000000000000  0.3750000000000000  0.3935377439298549   F   F   F
  0.5000000000000000  0.2500000000000000  0.3935377439298549   F   F   F
  0.5000000000000000  0.3750000000000000  0.5000000000000000   F   F   F
  0.2500000000000000  0.2500000000000000  0.5000000000000000   F   F   F
  0.7516971113508389  0.3750488797708876  0.6045983044172255   T   T   T
  0.5000865042235169  0.2482692976456202  0.6042813310556658   T   T   T
  0.4999985386244914  0.3561910089089772  0.7083136553253693   T   T   T
  0.2499843273494554  0.2497098287297050  0.7087032142700590   T   T   T
  0.5000000000000000  0.6250000000000000  0.2870754878597097   F   F   F
  0.2500000000000000  0.5000000000000000  0.2870754878597097   F   F   F
  0.7500000000000000  0.6250000000000000  0.3935377439298549   F   F   F
  0.5000000000000000  0.5000000000000000  0.3935377439298549   F   F   F
  0.5000000000000000  0.6250000000000000  0.5000000000000000   F   F   F
  0.2500000000000000  0.5000000000000000  0.5000000000000000   F   F   F
  0.7517083283864919  0.6249429042086405  0.6045965046736370   T   T   T
  0.4999380921896819  0.5002142044654044  0.6075027044307635   T   T   T
  0.4999890259997333  0.6438152932010291  0.7083155786914461   T   T   T
  0.2523306499276942  0.4999959821390522  0.7082923320566534   T   T   T
  0.5000000000000000  0.8750000000000000  0.2870754878597097   F   F   F
  0.2500000000000000  0.7500000000000000  0.2870754878597097   F   F   F
  0.7500000000000000  0.8750000000000000  0.3935377439298549   F   F   F
  0.5000000000000000  0.7500000000000000  0.3935377439298549   F   F   F
  0.5000000000000000  0.8750000000000000  0.5000000000000000   F   F   F
  0.2500000000000000  0.7500000000000000  0.5000000000000000   F   F   F
  0.7510317664798102  0.8750634226659945  0.6044502378481582   T   T   T
  0.5000233593087544  0.7519828637881795  0.6042754157942333   T   T   T
  0.4999792892441312  0.8787599987450502  0.7232417760800199   T   T   T
  0.2499557905065229  0.7502872802426559  0.7087012532186531   T   T   T
  0.8477349641203418  0.1250000000000000  0.2870754878597097   F   F   F
  0.1522650358796582  0.1250000000000000  0.2870754878597097   F   F   F
  0.0000000000000000  0.0000000000000000  0.2454551487509704   F   F   F
  0.0000000000000000  0.0000000000000000  0.3286958269684561   F   F   F
  0.0977349641203418  0.1250000000000000  0.3935377439298549   F   F   F
  0.9022650358796582  0.1250000000000000  0.3935377439298549   F   F   F
  0.2500000000000000  0.0000000000000000  0.3519174048211084   F   F   F
  0.2500000000000000  0.0000000000000000  0.4351580830386013   F   F   F
  0.8477349641203418  0.1250000000000000  0.5000000000000000   F   F   F
  0.1522650358796582  0.1250000000000000  0.5000000000000000   F   F   F
  0.0000000000000000  0.0000000000000000  0.4583796608912536   F   F   F
  0.0000000000000000  0.0000000000000000  0.5416203391087464   F   F   F
  0.1002821367381504  0.1251308988595104  0.6072004824794724   T   T   T
  0.8997265840869482  0.1251333137141206  0.6072009333315854   T   T   T
  0.2506983169143253  0.0000062084271012  0.5653332944654385   T   T   T
  0.2516374031047038  0.0000107078388652  0.6493961956894972   T   T   T
  0.8430255230829676  0.1255967726787640  0.7185691913111425   T   T   T
  0.1569632865819114  0.1255954881461107  0.7185667332569530   T   T   T
  0.0000000425121710  0.9999927368197569  0.6713784740256812   T   T   T
  0.0000005675834423 -0.0000072096585166  0.7544754445139232   T   T   T
  0.8477349641203418  0.3750000000000000  0.2870754878597097   F   F   F
  0.1522650358796582  0.3750000000000000  0.2870754878597097   F   F   F
  0.0000000000000000  0.2500000000000000  0.2454551487509704   F   F   F
  0.0000000000000000  0.2500000000000000  0.3286958269684561   F   F   F
  0.0977349641203418  0.3750000000000000  0.3935377439298549   F   F   F
  0.9022650358796582  0.3750000000000000  0.3935377439298549   F   F   F
  0.2500000000000000  0.2500000000000000  0.3519174048211084   F   F   F
  0.2500000000000000  0.2500000000000000  0.4351580830386013   F   F   F
  0.8477349641203418  0.3750000000000000  0.5000000000000000   F   F   F
  0.1522650358796582  0.3750000000000000  0.5000000000000000   F   F   F
  0.0000000000000000  0.2500000000000000  0.4583796608912536   F   F   F
  0.0000000000000000  0.2500000000000000  0.5416203391087464   F   F   F
  0.1002938194480067  0.3750667241095561  0.6070758896526168   T   T   T
  0.8997150149048394  0.3750568534246547  0.6070766180852150   T   T   T
  0.2515211468167165  0.2502501908763531  0.5653872657150623   T   T   T
  0.2512338667103480  0.2500846875086613  0.6497421746487819   T   T   T
  0.8411092479417573  0.3751946123031387  0.7194527242435861   T   T   T
  0.1588842983099291  0.3752030209551428  0.7194502331333873   T   T   T
  0.0000032908800220  0.2507229550119254  0.6714064650271416   T   T   T
  0.9999991300397307  0.2501898738307620  0.7545196709915801   T   T   T
  0.8477349641203418  0.6250000000000000  0.2870754878597097   F   F   F
  0.1522650358796582  0.6250000000000000  0.2870754878597097   F   F   F
  0.0000000000000000  0.5000000000000000  0.2454551487509704   F   F   F
  0.0000000000000000  0.5000000000000000  0.3286958269684561   F   F   F
  0.0977349641203418  0.6250000000000000  0.3935377439298549   F   F   F
  0.9022650358796582  0.6250000000000000  0.3935377439298549   F   F   F
  0.2500000000000000  0.5000000000000000  0.3519174048211084   F   F   F
  0.2500000000000000  0.5000000000000000  0.4351580830386013   F   F   F
  0.8477349641203418  0.6250000000000000  0.5000000000000000   F   F   F
  0.1522650358796582  0.6250000000000000  0.5000000000000000   F   F   F
  0.0000000000000000  0.5000000000000000  0.4583796608912536   F   F   F
  0.0000000000000000  0.5000000000000000  0.5416203391087464   F   F   F
  0.1002816971484816  0.6249402516784186  0.6070739217037615   T   T   T
  0.8997059932222514  0.6249434718067378  0.6070756812716143   T   T   T
  0.2516582369417888  0.5000055275397013  0.5653681362256072   T   T   T
  0.2506437177836313  0.5000058192236539  0.6494539226085065   T   T   T
  0.8411037436315414  0.6247995678429581  0.7194518044501746   T   T   T
  0.1588688166808132  0.6247812944955908  0.7194500010151403   T   T   T
 -0.0000039964259244  0.4999979767171363  0.6714433296688509   T   T   T
 -0.0000042433687854  0.4999968159929860  0.7545844966047701   T   T   T
  0.8477349641203418  0.8750000000000000  0.2870754878597097   F   F   F
  0.1522650358796582  0.8750000000000000  0.2870754878597097   F   F   F
  0.0000000000000000  0.7500000000000000  0.2454551487509704   F   F   F
  0.0000000000000000  0.7500000000000000  0.3286958269684561   F   F   F
  0.0977349641203418  0.8750000000000000  0.3935377439298549   F   F   F
  0.9022650358796582  0.8750000000000000  0.3935377439298549   F   F   F
  0.2500000000000000  0.7500000000000000  0.3519174048211084   F   F   F
  0.2500000000000000  0.7500000000000000  0.4351580830386013   F   F   F
  0.8477349641203418  0.8750000000000000  0.5000000000000000   F   F   F
  0.1522650358796582  0.8750000000000000  0.5000000000000000   F   F   F
  0.0000000000000000  0.7500000000000000  0.4583796608912536   F   F   F
  0.0000000000000000  0.7500000000000000  0.5416203391087464   F   F   F
  0.1002827467426554  0.8748717205736956  0.6072009253982741   T   T   T
  0.8997155170144533  0.8748707120866721  0.6072009152704464   T   T   T
  0.2515268419339677  0.7497692331499146  0.5653923112711468   T   T   T
  0.2512352674526304  0.7499191048525832  0.6497402124105244   T   T   T
  0.8430230502486409  0.8743900932178957  0.7185694676459450   T   T   T
  0.1569536568957553  0.8744012784154498  0.7185642877287738   T   T   T
  0.0000030572901422  0.7492681451211407  0.6713990566773115   T   T   T
  0.0000017768076296  0.7498069812766098  0.7545180489350132   T   T   T
  0.3477349641203418  0.1250000000000000  0.2870754878597097   F   F   F
  0.6522650358796582  0.1250000000000000  0.2870754878597097   F   F   F
  0.5000000000000000  0.0000000000000000  0.2454551487509704   F   F   F
  0.5000000000000000  0.0000000000000000  0.3286958269684561   F   F   F
  0.5977349641203418  0.1250000000000000  0.3935377439298549   F   F   F
  0.4022650358796582  0.1250000000000000  0.3935377439298549   F   F   F
  0.7500000000000000  0.0000000000000000  0.3519174048211084   F   F   F
  0.7500000000000000  0.0000000000000000  0.4351580830386013   F   F   F
  0.3477349641203418  0.1250000000000000  0.5000000000000000   F   F   F
  0.6522650358796582  0.1250000000000000  0.5000000000000000   F   F   F
  0.5000000000000000  0.0000000000000000  0.4583796608912536   F   F   F
  0.5000000000000000  0.0000000000000000  0.5416203391087464   F   F   F
  0.5988363861251612  0.1250755792813158  0.6073361367857227   T   T   T
  0.4011984483042278  0.1250975331873944  0.6073357058203531   T   T   T
  0.7493145090484247 -0.0000070911602329  0.5653330677794971   T   T   T
  0.7483738551716532 -0.0000031706286384  0.6493954781016557   T   T   T
  0.3445392134866767  0.1244845995903727  0.7201249387731768   T   T   T
  0.6554485702548465  0.1244707577861328  0.7201236360587315   T   T   T
  0.4999838664921850  0.0000099123462543  0.6747131884524661   T   T   T
  0.4999857406853984 -0.0000048267458411  0.7596762845108962   T   T   T
  0.3477349641203418  0.3750000000000000  0.2870754878597097   F   F   F
  0.6522650358796582  0.3750000000000000  0.2870754878597097   F   F   F
  0.5000000000000000  0.2500000000000000  0.2454551487509704   F   F   F
  0.5000000000000000  0.2500000000000000  0.3286958269684561   F   F   F
  0.5977349641203418  0.3750000000000000  0.3935377439298549   F   F   F
  0.4022650358796582  0.3750000000000000  0.3935377439298549   F   F   F
  0.7500000000000000  0.2500000000000000  0.3519174048211084   F   F   F
  0.7500000000000000  0.2500000000000000  0.4351580830386013   F   F   F
  0.3477349641203418  0.3750000000000000  0.5000000000000000   F   F   F
  0.6522650358796582  0.3750000000000000  0.5000000000000000   F   F   F
  0.5000000000000000  0.2500000000000000  0.4583796608912536   F   F   F
  0.5000000000000000  0.2500000000000000  0.5416203391087464   F   F   F
  0.5982564409330665  0.3752360678409573  0.6081630457129301   T   T   T
  0.4017590782779430  0.3752250246693827  0.6081616966132632   T   T   T
  0.7484787389087392  0.2502383913952865  0.5653867477611206   T   T   T
  0.7487630975871722  0.2500764480668496  0.6497450787825915   T   T   T
  0.3486502577179402  0.3765793978062929  0.7189501456273446   T   T   T
  0.6513333447924231  0.3765882966009209  0.7189520266985292   T   T   T
  0.5000144558822488  0.2416687889947128  0.6711151463394820   T   T   T
  0.4999885475619705  0.2548325123148760  0.7536720037415073   T   T   T
  0.3477349641203418  0.6250000000000000  0.2870754878597097   F   F   F
  0.6522650358796582  0.6250000000000000  0.2870754878597097   F   F   F
  0.5000000000000000  0.5000000000000000  0.2454551487509704   F   F   F
  0.5000000000000000  0.5000000000000000  0.3286958269684561   F   F   F
  0.5977349641203418  0.6250000000000000  0.3935377439298549   F   F   F
  0.4022650358796582  0.6250000000000000  0.3935377439298549   F   F   F
  0.7500000000000000  0.5000000000000000  0.3519174048211084   F   F   F
  0.7500000000000000  0.5000000000000000  0.4351580830386013   F   F   F
  0.3477349641203418  0.6250000000000000  0.5000000000000000   F   F   F
  0.6522650358796582  0.6250000000000000  0.5000000000000000   F   F   F
  0.5000000000000000  0.5000000000000000  0.4583796608912536   F   F   F
  0.5000000000000000  0.5000000000000000  0.5416203391087464   F   F   F
  0.5982466390926030  0.6248356011734759  0.6081683796705412   T   T   T
  0.4017515925713748  0.6248334058728106  0.6081653346133944   T   T   T
  0.7483482490756356  0.5000000560952703  0.5653626897905466   T   T   T
  0.7493614355771200  0.5000011875220276  0.6494531252241902   T   T   T
  0.3486413676336167  0.6234177639666851  0.7189515099727851   T   T   T
  0.6513337530931911  0.6234086126627698  0.7189526837109367   T   T   T
  0.4999792171733247  0.5000157632837006  0.6766022607237880   T   T   T
  0.3477349641203418  0.8750000000000000  0.2870754878597097   F   F   F
  0.6522650358796582  0.8750000000000000  0.2870754878597097   F   F   F
  0.5000000000000000  0.7500000000000000  0.2454551487509704   F   F   F
  0.5000000000000000  0.7500000000000000  0.3286958269684561   F   F   F
  0.5977349641203418  0.8750000000000000  0.3935377439298549   F   F   F
  0.4022650358796582  0.8750000000000000  0.3935377439298549   F   F   F
  0.7500000000000000  0.7500000000000000  0.3519174048211084   F   F   F
  0.7500000000000000  0.7500000000000000  0.4351580830386013   F   F   F
  0.3477349641203418  0.8750000000000000  0.5000000000000000   F   F   F
  0.6522650358796582  0.8750000000000000  0.5000000000000000   F   F   F
  0.5000000000000000  0.7500000000000000  0.4583796608912536   F   F   F
  0.5000000000000000  0.7500000000000000  0.5416203391087464   F   F   F
  0.5988255626185224  0.8749463472732114  0.6073378143036464   T   T   T
  0.4011838011410557  0.8749524051190009  0.6073381155110782   T   T   T
  0.7484729999446859  0.7497640632545414  0.5653864381942706   T   T   T
  0.7487492301402293  0.7499209332615369  0.6497411369399142   T   T   T
  0.3445289795595942  0.8755052573691541  0.7201210688581667   T   T   T
  0.6554396189703324  0.8755177696141478  0.7201200869452764   T   T   T
  0.4999913142699354  0.7583469199759113  0.6711109712088529   T   T   T
  0.4999893693746560  0.7451770404044067  0.7536712586528894   T   T   T
 
  0.00000000E+00  0.00000000E+00  0.00000000E+00
  0.00000000E+00  0.00000000E+00  0.00000000E+00
  0.00000000E+00  0.00000000E+00  0.00000000E+00
  0.00000000E+00  0.00000000E+00  0.00000000E+00
  0.00000000E+00  0.00000000E+00  0.00000000E+00
  0.00000000E+00  0.00000000E+00  0.00000000E+00
  0.00000000E+00  0.00000000E+00  0.00000000E+00
  0.00000000E+00  0.00000000E+00  0.00000000E+00
  0.00000000E+00  0.00000000E+00  0.00000000E+00
  0.00000000E+00  0.00000000E+00  0.00000000E+00
  0.00000000E+00  0.00000000E+00  0.00000000E+00
  0.00000000E+00  0.00000000E+00  0.00000000E+00
  0.00000000E+00  0.00000000E+00  0.00000000E+00
  0.00000000E+00  0.00000000E+00  0.00000000E+00
  0.00000000E+00  0.00000000E+00  0.00000000E+00
  0.00000000E+00  0.00000000E+00  0.00000000E+00
  0.00000000E+00  0.00000000E+00  0.00000000E+00
  0.00000000E+00  0.00000000E+00  0.00000000E+00
  0.00000000E+00  0.00000000E+00  0.00000000E+00
  0.00000000E+00  0.00000000E+00  0.00000000E+00
  0.00000000E+00  0.00000000E+00  0.00000000E+00
  0.00000000E+00  0.00000000E+00  0.00000000E+00
  0.00000000E+00  0.00000000E+00  0.00000000E+00
  0.00000000E+00  0.00000000E+00  0.00000000E+00
  0.00000000E+00  0.00000000E+00  0.00000000E+00
  0.00000000E+00  0.00000000E+00  0.00000000E+00
  0.00000000E+00  0.00000000E+00  0.00000000E+00
  0.00000000E+00  0.00000000E+00  0.00000000E+00
  0.00000000E+00  0.00000000E+00  0.00000000E+00
  0.00000000E+00  0.00000000E+00  0.00000000E+00
  0.00000000E+00  0.00000000E+00  0.00000000E+00
  0.00000000E+00  0.00000000E+00  0.00000000E+00
  0.00000000E+00  0.00000000E+00  0.00000000E+00
  0.00000000E+00  0.00000000E+00  0.00000000E+00
  0.00000000E+00  0.00000000E+00  0.00000000E+00
  0.00000000E+00  0.00000000E+00  0.00000000E+00
  0.00000000E+00  0.00000000E+00  0.00000000E+00
  0.00000000E+00  0.00000000E+00  0.00000000E+00
  0.00000000E+00  0.00000000E+00  0.00000000E+00
  0.00000000E+00  0.00000000E+00  0.00000000E+00
  0.00000000E+00  0.00000000E+00  0.00000000E+00
  0.00000000E+00  0.00000000E+00  0.00000000E+00
  0.00000000E+00  0.00000000E+00  0.00000000E+00
  0.00000000E+00  0.00000000E+00  0.00000000E+00
  0.00000000E+00  0.00000000E+00  0.00000000E+00
  0.00000000E+00  0.00000000E+00  0.00000000E+00
  0.00000000E+00  0.00000000E+00  0.00000000E+00
  0.00000000E+00  0.00000000E+00  0.00000000E+00
  0.00000000E+00  0.00000000E+00  0.00000000E+00
  0.00000000E+00  0.00000000E+00  0.00000000E+00
  0.00000000E+00  0.00000000E+00  0.00000000E+00
  0.00000000E+00  0.00000000E+00  0.00000000E+00
  0.00000000E+00  0.00000000E+00  0.00000000E+00
  0.00000000E+00  0.00000000E+00  0.00000000E+00
  0.00000000E+00  0.00000000E+00  0.00000000E+00
  0.00000000E+00  0.00000000E+00  0.00000000E+00
  0.00000000E+00  0.00000000E+00  0.00000000E+00
  0.00000000E+00  0.00000000E+00  0.00000000E+00
  0.00000000E+00  0.00000000E+00  0.00000000E+00
  0.00000000E+00  0.00000000E+00  0.00000000E+00
  0.00000000E+00  0.00000000E+00  0.00000000E+00
  0.00000000E+00  0.00000000E+00  0.00000000E+00
  0.00000000E+00  0.00000000E+00  0.00000000E+00
  0.00000000E+00  0.00000000E+00  0.00000000E+00
  0.00000000E+00  0.00000000E+00  0.00000000E+00
  0.00000000E+00  0.00000000E+00  0.00000000E+00
  0.00000000E+00  0.00000000E+00  0.00000000E+00
  0.00000000E+00  0.00000000E+00  0.00000000E+00
  0.00000000E+00  0.00000000E+00  0.00000000E+00
  0.00000000E+00  0.00000000E+00  0.00000000E+00
  0.00000000E+00  0.00000000E+00  0.00000000E+00
  0.00000000E+00  0.00000000E+00  0.00000000E+00
  0.00000000E+00  0.00000000E+00  0.00000000E+00
  0.00000000E+00  0.00000000E+00  0.00000000E+00
  0.00000000E+00  0.00000000E+00  0.00000000E+00
  0.00000000E+00  0.00000000E+00  0.00000000E+00
  0.00000000E+00  0.00000000E+00  0.00000000E+00
  0.00000000E+00  0.00000000E+00  0.00000000E+00
  0.00000000E+00  0.00000000E+00  0.00000000E+00
  0.00000000E+00  0.00000000E+00  0.00000000E+00
  0.00000000E+00  0.00000000E+00  0.00000000E+00
  0.00000000E+00  0.00000000E+00  0.00000000E+00
  0.00000000E+00  0.00000000E+00  0.00000000E+00
  0.00000000E+00  0.00000000E+00  0.00000000E+00
  0.00000000E+00  0.00000000E+00  0.00000000E+00
  0.00000000E+00  0.00000000E+00  0.00000000E+00
  0.00000000E+00  0.00000000E+00  0.00000000E+00
  0.00000000E+00  0.00000000E+00  0.00000000E+00
  0.00000000E+00  0.00000000E+00  0.00000000E+00
  0.00000000E+00  0.00000000E+00  0.00000000E+00
  0.00000000E+00  0.00000000E+00  0.00000000E+00
  0.00000000E+00  0.00000000E+00  0.00000000E+00
  0.00000000E+00  0.00000000E+00  0.00000000E+00
  0.00000000E+00  0.00000000E+00  0.00000000E+00
  0.00000000E+00  0.00000000E+00  0.00000000E+00
  0.00000000E+00  0.00000000E+00  0.00000000E+00
  0.00000000E+00  0.00000000E+00  0.00000000E+00
  0.00000000E+00  0.00000000E+00  0.00000000E+00
  0.00000000E+00  0.00000000E+00  0.00000000E+00
  0.00000000E+00  0.00000000E+00  0.00000000E+00
  0.00000000E+00  0.00000000E+00  0.00000000E+00
  0.00000000E+00  0.00000000E+00  0.00000000E+00
  0.00000000E+00  0.00000000E+00  0.00000000E+00
  0.00000000E+00  0.00000000E+00  0.00000000E+00
  0.00000000E+00  0.00000000E+00  0.00000000E+00
  0.00000000E+00  0.00000000E+00  0.00000000E+00
  0.00000000E+00  0.00000000E+00  0.00000000E+00
  0.00000000E+00  0.00000000E+00  0.00000000E+00
  0.00000000E+00  0.00000000E+00  0.00000000E+00
  0.00000000E+00  0.00000000E+00  0.00000000E+00
  0.00000000E+00  0.00000000E+00  0.00000000E+00
  0.00000000E+00  0.00000000E+00  0.00000000E+00
  0.00000000E+00  0.00000000E+00  0.00000000E+00
  0.00000000E+00  0.00000000E+00  0.00000000E+00
  0.00000000E+00  0.00000000E+00  0.00000000E+00
  0.00000000E+00  0.00000000E+00  0.00000000E+00
  0.00000000E+00  0.00000000E+00  0.00000000E+00
  0.00000000E+00  0.00000000E+00  0.00000000E+00
  0.00000000E+00  0.00000000E+00  0.00000000E+00
  0.00000000E+00  0.00000000E+00  0.00000000E+00
  0.00000000E+00  0.00000000E+00  0.00000000E+00
  0.00000000E+00  0.00000000E+00  0.00000000E+00
  0.00000000E+00  0.00000000E+00  0.00000000E+00
  0.00000000E+00  0.00000000E+00  0.00000000E+00
  0.00000000E+00  0.00000000E+00  0.00000000E+00
  0.00000000E+00  0.00000000E+00  0.00000000E+00
  0.00000000E+00  0.00000000E+00  0.00000000E+00
  0.00000000E+00  0.00000000E+00  0.00000000E+00
  0.00000000E+00  0.00000000E+00  0.00000000E+00
  0.00000000E+00  0.00000000E+00  0.00000000E+00
  0.00000000E+00  0.00000000E+00  0.00000000E+00
  0.00000000E+00  0.00000000E+00  0.00000000E+00
  0.00000000E+00  0.00000000E+00  0.00000000E+00
  0.00000000E+00  0.00000000E+00  0.00000000E+00
  0.00000000E+00  0.00000000E+00  0.00000000E+00
  0.00000000E+00  0.00000000E+00  0.00000000E+00
  0.00000000E+00  0.00000000E+00  0.00000000E+00
  0.00000000E+00  0.00000000E+00  0.00000000E+00
  0.00000000E+00  0.00000000E+00  0.00000000E+00
  0.00000000E+00  0.00000000E+00  0.00000000E+00
  0.00000000E+00  0.00000000E+00  0.00000000E+00
  0.00000000E+00  0.00000000E+00  0.00000000E+00
  0.00000000E+00  0.00000000E+00  0.00000000E+00
  0.00000000E+00  0.00000000E+00  0.00000000E+00
  0.00000000E+00  0.00000000E+00  0.00000000E+00
  0.00000000E+00  0.00000000E+00  0.00000000E+00
  0.00000000E+00  0.00000000E+00  0.00000000E+00
  0.00000000E+00  0.00000000E+00  0.00000000E+00
  0.00000000E+00  0.00000000E+00  0.00000000E+00
  0.00000000E+00  0.00000000E+00  0.00000000E+00
  0.00000000E+00  0.00000000E+00  0.00000000E+00
  0.00000000E+00  0.00000000E+00  0.00000000E+00
  0.00000000E+00  0.00000000E+00  0.00000000E+00
  0.00000000E+00  0.00000000E+00  0.00000000E+00
  0.00000000E+00  0.00000000E+00  0.00000000E+00
  0.00000000E+00  0.00000000E+00  0.00000000E+00
  0.00000000E+00  0.00000000E+00  0.00000000E+00
  0.00000000E+00  0.00000000E+00  0.00000000E+00
  0.00000000E+00  0.00000000E+00  0.00000000E+00
  0.00000000E+00  0.00000000E+00  0.00000000E+00
  0.00000000E+00  0.00000000E+00  0.00000000E+00
  0.00000000E+00  0.00000000E+00  0.00000000E+00
  0.00000000E+00  0.00000000E+00  0.00000000E+00
  0.00000000E+00  0.00000000E+00  0.00000000E+00
  0.00000000E+00  0.00000000E+00  0.00000000E+00
  0.00000000E+00  0.00000000E+00  0.00000000E+00
  0.00000000E+00  0.00000000E+00  0.00000000E+00
  0.00000000E+00  0.00000000E+00  0.00000000E+00
  0.00000000E+00  0.00000000E+00  0.00000000E+00
  0.00000000E+00  0.00000000E+00  0.00000000E+00
  0.00000000E+00  0.00000000E+00  0.00000000E+00
  0.00000000E+00  0.00000000E+00  0.00000000E+00
  0.00000000E+00  0.00000000E+00  0.00000000E+00
  0.00000000E+00  0.00000000E+00  0.00000000E+00
  0.00000000E+00  0.00000000E+00  0.00000000E+00
  0.00000000E+00  0.00000000E+00  0.00000000E+00
  0.00000000E+00  0.00000000E+00  0.00000000E+00
  0.00000000E+00  0.00000000E+00  0.00000000E+00
  0.00000000E+00  0.00000000E+00  0.00000000E+00
  0.00000000E+00  0.00000000E+00  0.00000000E+00
  0.00000000E+00  0.00000000E+00  0.00000000E+00
  0.00000000E+00  0.00000000E+00  0.00000000E+00
  0.00000000E+00  0.00000000E+00  0.00000000E+00
  0.00000000E+00  0.00000000E+00  0.00000000E+00
  0.00000000E+00  0.00000000E+00  0.00000000E+00
  0.00000000E+00  0.00000000E+00  0.00000000E+00
  0.00000000E+00  0.00000000E+00  0.00000000E+00
  0.00000000E+00  0.00000000E+00  0.00000000E+00
  0.00000000E+00  0.00000000E+00  0.00000000E+00
  0.00000000E+00  0.00000000E+00  0.00000000E+00
  0.00000000E+00  0.00000000E+00  0.00000000E+00
  0.00000000E+00  0.00000000E+00  0.00000000E+00
  0.00000000E+00  0.00000000E+00  0.00000000E+00
  0.00000000E+00  0.00000000E+00  0.00000000E+00
  0.00000000E+00  0.00000000E+00  0.00000000E+00
  0.00000000E+00  0.00000000E+00  0.00000000E+00
  0.00000000E+00  0.00000000E+00  0.00000000E+00
  0.00000000E+00  0.00000000E+00  0.00000000E+00
  0.00000000E+00  0.00000000E+00  0.00000000E+00
  0.00000000E+00  0.00000000E+00  0.00000000E+00
  0.00000000E+00  0.00000000E+00  0.00000000E+00
  0.00000000E+00  0.00000000E+00  0.00000000E+00
  0.00000000E+00  0.00000000E+00  0.00000000E+00
  0.00000000E+00  0.00000000E+00  0.00000000E+00
  0.00000000E+00  0.00000000E+00  0.00000000E+00
  0.00000000E+00  0.00000000E+00  0.00000000E+00
  0.00000000E+00  0.00000000E+00  0.00000000E+00
  0.00000000E+00  0.00000000E+00  0.00000000E+00
  0.00000000E+00  0.00000000E+00  0.00000000E+00
  0.00000000E+00  0.00000000E+00  0.00000000E+00
  0.00000000E+00  0.00000000E+00  0.00000000E+00
  0.00000000E+00  0.00000000E+00  0.00000000E+00
  0.00000000E+00  0.00000000E+00  0.00000000E+00
  0.00000000E+00  0.00000000E+00  0.00000000E+00
  0.00000000E+00  0.00000000E+00  0.00000000E+00
  0.00000000E+00  0.00000000E+00  0.00000000E+00
  0.00000000E+00  0.00000000E+00  0.00000000E+00
  0.00000000E+00  0.00000000E+00  0.00000000E+00
  0.00000000E+00  0.00000000E+00  0.00000000E+00
  0.00000000E+00  0.00000000E+00  0.00000000E+00
  0.00000000E+00  0.00000000E+00  0.00000000E+00
  0.00000000E+00  0.00000000E+00  0.00000000E+00
  0.00000000E+00  0.00000000E+00  0.00000000E+00
  0.00000000E+00  0.00000000E+00  0.00000000E+00
  0.00000000E+00  0.00000000E+00  0.00000000E+00
  0.00000000E+00  0.00000000E+00  0.00000000E+00
  0.00000000E+00  0.00000000E+00  0.00000000E+00
  0.00000000E+00  0.00000000E+00  0.00000000E+00
  0.00000000E+00  0.00000000E+00  0.00000000E+00
  0.00000000E+00  0.00000000E+00  0.00000000E+00
  0.00000000E+00  0.00000000E+00  0.00000000E+00
  0.00000000E+00  0.00000000E+00  0.00000000E+00
  0.00000000E+00  0.00000000E+00  0.00000000E+00
  0.00000000E+00  0.00000000E+00  0.00000000E+00
  0.00000000E+00  0.00000000E+00  0.00000000E+00
  0.00000000E+00  0.00000000E+00  0.00000000E+00
  0.00000000E+00  0.00000000E+00  0.00000000E+00
  0.00000000E+00  0.00000000E+00  0.00000000E+00
  0.00000000E+00  0.00000000E+00  0.00000000E+00
