O dimer in a box                        
   1.0000000000000000     
    11.0000000000000000    0.0000000000000000    0.0000000000000000
     0.0000000000000000   12.0000000000000000    0.0000000000000000
     0.0000000000000000    0.0000000000000000   13.0000000000000000
   O 
     1
Direct
  0.0000000000000000  0.0000000000000000  0.0153846153846189

  0.00000000E+00  0.00000000E+00  0.00000000E+00
