Ti  O                                   
   1.00000000000000     
    13.1414240571821228    0.0000000000000000    0.0000000000000000
     0.0000000000000000   11.8675837719843074    0.0000000000000000
     0.0000000000000000    0.0000000000000000   30.7042271454677689
   Ti   O 
    80   159
Selective dynamics
Direct
  0.5000000000000000  0.1250000000000000  0.2859997583570220   F   F   F
  0.7500000000000000  0.0000000000000000  0.2859997583570220   F   F   F
  0.2500000000000000  0.1250000000000000  0.3929998791785110   F   F   F
  0.5000000000000000  0.0000000000000000  0.3929998791785110   F   F   F
  0.5000000000000000  0.1250000000000000  0.5000000000000000   F   F   F
  0.7500000000000000  0.0000000000000000  0.5000000000000000   F   F   F
  0.7517681947733905  0.1248547927485077  0.6052217416733399   T   T   T
  0.5000170559230313  0.9999832517098994  0.6148913285600415   T   T   T
  0.5001772180094193  0.1223152871954412  0.7254954743080546   T   T   T
  0.7479646369809885  0.9999733983474712  0.7096731210495193   T   T   T
  0.5000000000000000  0.3750000000000000  0.2859997583570220   F   F   F
  0.7500000000000000  0.2500000000000000  0.2859997583570220   F   F   F
  0.2500000000000000  0.3750000000000000  0.3929998791785110   F   F   F
  0.5000000000000000  0.2500000000000000  0.3929998791785110   F   F   F
  0.5000000000000000  0.3750000000000000  0.5000000000000000   F   F   F
  0.7500000000000000  0.2500000000000000  0.5000000000000000   F   F   F
  0.7514384889524877  0.3750401198951181  0.6052539394534833   T   T   T
  0.5000047911705678  0.2472387994215310  0.6046395405222782   T   T   T
  0.4999941668052514  0.3567786801000707  0.7098304699170157   T   T   T
  0.7511386281916401  0.2498562353871208  0.7098155869120291   T   T   T
  0.5000000000000000  0.6250000000000000  0.2859997583570220   F   F   F
  0.7500000000000000  0.5000000000000000  0.2859997583570220   F   F   F
  0.2500000000000000  0.6250000000000000  0.3929998791785110   F   F   F
  0.5000000000000000  0.5000000000000000  0.3929998791785110   F   F   F
  0.5000000000000000  0.6250000000000000  0.5000000000000000   F   F   F
  0.7500000000000000  0.5000000000000000  0.5000000000000000   F   F   F
  0.7514380921681578  0.6249584039136309  0.6052524815783045   T   T   T
  0.4999944497831024  0.4999910957858162  0.6071595797435947   T   T   T
  0.4999894158640572  0.6431504877183798  0.7098179211853051   T   T   T
  0.7461989097684523  0.4999973152607922  0.7094801160175521   T   T   T
  0.5000000000000000  0.8750000000000000  0.2859997583570220   F   F   F
  0.7500000000000000  0.7500000000000000  0.2859997583570220   F   F   F
  0.2500000000000000  0.8750000000000000  0.3929998791785110   F   F   F
  0.5000000000000000  0.7500000000000000  0.3929998791785110   F   F   F
  0.5000000000000000  0.8750000000000000  0.5000000000000000   F   F   F
  0.7500000000000000  0.7500000000000000  0.5000000000000000   F   F   F
  0.7517791339856288  0.8751537159520026  0.6052168437818821   T   T   T
  0.5000119890036530  0.7527353519302622  0.6046361473833883   T   T   T
  0.4999992631820689  0.8774925804482621  0.7255125069598094   T   T   T
  0.7511174583808824  0.7501425642073016  0.7098166318219938   T   T   T
  0.0000000000000000  0.1250000000000000  0.2859997583570220   F   F   F
  0.2500000000000000  0.0000000000000000  0.2859997583570220   F   F   F
  0.7500000000000000  0.1250000000000000  0.3929998791785110   F   F   F
  0.0000000000000000  0.0000000000000000  0.3929998791785110   F   F   F
  0.0000000000000000  0.1250000000000000  0.5000000000000000   F   F   F
  0.2500000000000000  0.0000000000000000  0.5000000000000000   F   F   F
  0.2482755400067234  0.1248667073413543  0.6051970892688416   T   T   T
  0.0000128138743136  0.0000061360672987  0.6108186837916563   T   T   T
  0.0000235979369094  0.1249518291432210  0.7205801862340380   T   T   T
  0.2521471738130074  0.0000153512399379  0.7096294163342165   T   T   T
  0.0000000000000000  0.3750000000000000  0.2859997583570220   F   F   F
  0.2500000000000000  0.2500000000000000  0.2859997583570220   F   F   F
  0.7500000000000000  0.3750000000000000  0.3929998791785110   F   F   F
  0.0000000000000000  0.2500000000000000  0.3929998791785110   F   F   F
  0.0000000000000000  0.3750000000000000  0.5000000000000000   F   F   F
  0.2500000000000000  0.2500000000000000  0.5000000000000000   F   F   F
  0.2485631180496810  0.3750476936036691  0.6052551743063077   T   T   T
  0.0000210880033862  0.2502292966739503  0.6108201254913013   T   T   T
  0.0000105068378247  0.3752981691617165  0.7208328727518705   T   T   T
  0.2488880831406277  0.2498235418056751  0.7098148518788747   T   T   T
  0.0000000000000000  0.6250000000000000  0.2859997583570220   F   F   F
  0.2500000000000000  0.5000000000000000  0.2859997583570220   F   F   F
  0.7500000000000000  0.6250000000000000  0.3929998791785110   F   F   F
  0.0000000000000000  0.5000000000000000  0.3929998791785110   F   F   F
  0.0000000000000000  0.6250000000000000  0.5000000000000000   F   F   F
  0.2500000000000000  0.5000000000000000  0.5000000000000000   F   F   F
  0.2485671520200867  0.6249535721122754  0.6052567170608825   T   T   T
  0.9999916068801440  0.4999991374964736  0.6108809125231858   T   T   T
  0.9999965541807612  0.6247003352291358  0.7208345882990628   T   T   T
  0.2537894015669906  0.4999844826462621  0.7094837622472312   T   T   T
  0.0000000000000000  0.8750000000000000  0.2859997583570220   F   F   F
  0.2500000000000000  0.7500000000000000  0.2859997583570220   F   F   F
  0.7500000000000000  0.8750000000000000  0.3929998791785110   F   F   F
  0.0000000000000000  0.7500000000000000  0.3929998791785110   F   F   F
  0.0000000000000000  0.8750000000000000  0.5000000000000000   F   F   F
  0.2500000000000000  0.7500000000000000  0.5000000000000000   F   F   F
  0.2482709827681688  0.8751313922777442  0.6052002619042653   T   T   T
  0.0000286327262558  0.7497774789416098  0.6108185628402794   T   T   T
  0.0000309733189354  0.8750464377104166  0.7205811916174554   T   T   T
  0.2488606683265502  0.7501594134819243  0.7098094911716402   T   T   T
  0.3475085758261116  0.1250000000000000  0.2859997583570220   F   F   F
  0.6524914241738884  0.1250000000000000  0.2859997583570220   F   F   F
  0.5000000000000000  0.0000000000000000  0.2442660407789177   F   F   F
  0.5000000000000000  0.0000000000000000  0.3277334759351191   F   F   F
  0.5975085758261116  0.1250000000000000  0.3929998791785110   F   F   F
  0.4024914241738884  0.1250000000000000  0.3929998791785110   F   F   F
  0.7500000000000000  0.0000000000000000  0.3512661616004067   F   F   F
  0.2500000000000000  0.0000000000000000  0.4347335967566082   F   F   F
  0.3475085758261116  0.1250000000000000  0.5000000000000000   F   F   F
  0.6524914241738884  0.1250000000000000  0.5000000000000000   F   F   F
  0.5000000000000000  0.0000000000000000  0.4582662824218957   F   F   F
  0.5000000000000000  0.0000000000000000  0.5417337175781043   F   F   F
  0.5983987640283175  0.1254115554244564  0.6083270058679986   T   T   T
  0.4015970075707429  0.1254142794635200  0.6083214615093695   T   T   T
  0.2509926457284521  0.9999937431268080  0.5661218307065354   T   T   T
  0.2521088642133762  0.0000004642175071  0.6506288405508016   T   T   T
  0.3444496139064981  0.1246808701575048  0.7218230430099268   T   T   T
  0.6555838536397545  0.1246697909565029  0.7218560488364645   T   T   T
  0.5000193619467197  0.9999840981872907  0.6761305035287464   T   T   T
  0.5000181435612987  0.9999515899957530  0.7615539478395164   T   T   T
  0.3475085758261116  0.3750000000000000  0.2859997583570220   F   F   F
  0.6524914241738884  0.3750000000000000  0.2859997583570220   F   F   F
  0.5000000000000000  0.2500000000000000  0.2442660407789177   F   F   F
  0.5000000000000000  0.2500000000000000  0.3277334759351191   F   F   F
  0.5975085758261116  0.3750000000000000  0.3929998791785110   F   F   F
  0.4024914241738884  0.3750000000000000  0.3929998791785110   F   F   F
  0.7500000000000000  0.2500000000000000  0.3512661616004067   F   F   F
  0.2500000000000000  0.2500000000000000  0.4347335967566082   F   F   F
  0.3475085758261116  0.3750000000000000  0.5000000000000000   F   F   F
  0.6524914241738884  0.3750000000000000  0.5000000000000000   F   F   F
  0.5000000000000000  0.2500000000000000  0.4582662824218957   F   F   F
  0.5000000000000000  0.2500000000000000  0.5417337175781043   F   F   F
  0.5980241778481385  0.3755708100104940  0.6087478195954859   T   T   T
  0.4019705836955652  0.3755715623826745  0.6087512333429430   T   T   T
  0.2516137352857157  0.2501679320757120  0.5661121056622846   T   T   T
  0.2509866945975574  0.2501794754167079  0.6508126037867044   T   T   T
  0.3481641424926494  0.3763464373925132  0.7207034811789939   T   T   T
  0.6518479573197808  0.3763374689721886  0.7207040588816156   T   T   T
  0.5000169453682020  0.2429881480820555  0.6726798219041612   T   T   T
  0.5000304198903649  0.2550670929373311  0.7557182113400600   T   T   T
  0.3475085758261116  0.6250000000000000  0.2859997583570220   F   F   F
  0.6524914241738884  0.6250000000000000  0.2859997583570220   F   F   F
  0.5000000000000000  0.5000000000000000  0.2442660407789177   F   F   F
  0.5000000000000000  0.5000000000000000  0.3277334759351191   F   F   F
  0.5975085758261116  0.6250000000000000  0.3929998791785110   F   F   F
  0.4024914241738884  0.6250000000000000  0.3929998791785110   F   F   F
  0.7500000000000000  0.5000000000000000  0.3512661616004067   F   F   F
  0.2500000000000000  0.5000000000000000  0.4347335967566082   F   F   F
  0.3475085758261116  0.6250000000000000  0.5000000000000000   F   F   F
  0.6524914241738884  0.6250000000000000  0.5000000000000000   F   F   F
  0.5000000000000000  0.5000000000000000  0.4582662824218957   F   F   F
  0.5000000000000000  0.5000000000000000  0.5417337175781043   F   F   F
  0.5980242915667944  0.6244323548241724  0.6087523357078055   T   T   T
  0.4019703618941790  0.6244299024965940  0.6087520054117661   T   T   T
  0.2514974624978734  0.5000043214729288  0.5660534611874652   T   T   T
  0.2510692358580613  0.4999984145271625  0.6505968201321366   T   T   T
  0.3481616165756520  0.6236352831817698  0.7207118663745931   T   T   T
  0.6518341911983470  0.6236395555011640  0.7207102351573269   T   T   T
  0.5000050047647520  0.5000028414000539  0.6787657629595500   T   T   T
  0.3475085758261116  0.8750000000000000  0.2859997583570220   F   F   F
  0.6524914241738884  0.8750000000000000  0.2859997583570220   F   F   F
  0.5000000000000000  0.7500000000000000  0.2442660407789177   F   F   F
  0.5000000000000000  0.7500000000000000  0.3277334759351191   F   F   F
  0.5975085758261116  0.8750000000000000  0.3929998791785110   F   F   F
  0.4024914241738884  0.8750000000000000  0.3929998791785110   F   F   F
  0.7500000000000000  0.7500000000000000  0.3512661616004067   F   F   F
  0.2500000000000000  0.7500000000000000  0.4347335967566082   F   F   F
  0.3475085758261116  0.8750000000000000  0.5000000000000000   F   F   F
  0.6524914241738884  0.8750000000000000  0.5000000000000000   F   F   F
  0.5000000000000000  0.7500000000000000  0.4582662824218957   F   F   F
  0.5000000000000000  0.7500000000000000  0.5417337175781043   F   F   F
  0.5983999319672506  0.8745674651916602  0.6083333250854892   T   T   T
  0.4015917656080106  0.8745669654182961  0.6083298759745759   T   T   T
  0.2516140665797195  0.7498366558423655  0.5661131812439706   T   T   T
  0.2509815110421272  0.7498116147148295  0.6508172557919707   T   T   T
  0.3444458040543807  0.8752782922691722  0.7218307388451919   T   T   T
  0.6555732349088998  0.8752888822185554  0.7218435935390559   T   T   T
  0.4999964428957497  0.7570222156086004  0.6726912251812820   T   T   T
  0.5000041381502172  0.7448130529019110  0.7557389591797516   T   T   T
  0.8475085758261116  0.1250000000000000  0.2859997583570220   F   F   F
  0.1524914241738884  0.1250000000000000  0.2859997583570220   F   F   F
  0.0000000000000000  0.0000000000000000  0.2442660407789177   F   F   F
  0.0000000000000000  0.0000000000000000  0.3277334759351191   F   F   F
  0.0975085758261116  0.1250000000000000  0.3929998791785110   F   F   F
  0.9024914241738884  0.1250000000000000  0.3929998791785110   F   F   F
  0.2500000000000000  0.0000000000000000  0.3512661616004067   F   F   F
  0.7500000000000000  0.0000000000000000  0.4347335967566082   F   F   F
  0.8475085758261116  0.1250000000000000  0.5000000000000000   F   F   F
  0.1524914241738884  0.1250000000000000  0.5000000000000000   F   F   F
  0.0000000000000000  0.0000000000000000  0.4582662824218957   F   F   F
  0.0000000000000000  0.0000000000000000  0.5417337175781043   F   F   F
  0.1004214098897265  0.1250412356413264  0.6078498089524231   T   T   T
  0.8995888833463326  0.1250444032307314  0.6078522174422787   T   T   T
  0.7490090945087786  0.0000057581224269  0.5661370836126451   T   T   T
  0.7479214495950330  0.9999942939402047  0.6506620493154998   T   T   T
  0.8429531282025451  0.1254849579904729  0.7201029706515598   T   T   T
  0.1570480481333263  0.1254723813456451  0.7200813664783183   T   T   T
  0.9999944389450093  0.0000009024579626  0.6721758254064127   T   T   T
  0.9999939003764240  0.9999957051941735  0.7556987765642873   T   T   T
  0.8475085758261116  0.3750000000000000  0.2859997583570220   F   F   F
  0.1524914241738884  0.3750000000000000  0.2859997583570220   F   F   F
  0.0000000000000000  0.2500000000000000  0.2442660407789177   F   F   F
  0.0000000000000000  0.2500000000000000  0.3277334759351191   F   F   F
  0.0975085758261116  0.3750000000000000  0.3929998791785110   F   F   F
  0.9024914241738884  0.3750000000000000  0.3929998791785110   F   F   F
  0.2500000000000000  0.2500000000000000  0.3512661616004067   F   F   F
  0.7500000000000000  0.2500000000000000  0.4347335967566082   F   F   F
  0.8475085758261116  0.3750000000000000  0.5000000000000000   F   F   F
  0.1524914241738884  0.3750000000000000  0.5000000000000000   F   F   F
  0.0000000000000000  0.2500000000000000  0.4582662824218957   F   F   F
  0.0000000000000000  0.2500000000000000  0.5417337175781043   F   F   F
  0.1003657271609129  0.3750925298354275  0.6077716100650861   T   T   T
  0.8996418874384204  0.3750899836534529  0.6077716718432811   T   T   T
  0.7483889655684450  0.2501445843235572  0.5661193084108902   T   T   T
  0.7490138576668528  0.2501856240371652  0.6508269412750991   T   T   T
  0.8412067135399255  0.3753165527894566  0.7208858529072373   T   T   T
  0.1587990188790585  0.3753163526733587  0.7208881611259770   T   T   T
  0.9999975381446191  0.2505842162432756  0.6722027397407828   T   T   T
  0.9999987853849817  0.2501891039902020  0.7557425690310140   T   T   T
  0.8475085758261116  0.6250000000000000  0.2859997583570220   F   F   F
  0.1524914241738884  0.6250000000000000  0.2859997583570220   F   F   F
  0.0000000000000000  0.5000000000000000  0.2442660407789177   F   F   F
  0.0000000000000000  0.5000000000000000  0.3277334759351191   F   F   F
  0.0975085758261116  0.6250000000000000  0.3929998791785110   F   F   F
  0.9024914241738884  0.6250000000000000  0.3929998791785110   F   F   F
  0.2500000000000000  0.5000000000000000  0.3512661616004067   F   F   F
  0.7500000000000000  0.5000000000000000  0.4347335967566082   F   F   F
  0.8475085758261116  0.6250000000000000  0.5000000000000000   F   F   F
  0.1524914241738884  0.6250000000000000  0.5000000000000000   F   F   F
  0.0000000000000000  0.5000000000000000  0.4582662824218957   F   F   F
  0.0000000000000000  0.5000000000000000  0.5417337175781043   F   F   F
  0.1003660349732698  0.6249135626762907  0.6077701121370396   T   T   T
  0.8996452426171615  0.6249171580884862  0.6077716195958445   T   T   T
  0.7485025360345006  0.4999980665840411  0.5660504066603096   T   T   T
  0.7489239945628725  0.4999981879312045  0.6505964589030313   T   T   T
  0.8412020250035468  0.6246638258683674  0.7208828660012898   T   T   T
  0.1587914982202108  0.6246648230507788  0.7208849987459445   T   T   T
  0.0000008446991515  0.5000013278239877  0.6723972282561732   T   T   T
  0.9999905724229023  0.4999971082267081  0.7560143386937099   T   T   T
  0.8475085758261116  0.8750000000000000  0.2859997583570220   F   F   F
  0.1524914241738884  0.8750000000000000  0.2859997583570220   F   F   F
  0.0000000000000000  0.7500000000000000  0.2442660407789177   F   F   F
  0.0000000000000000  0.7500000000000000  0.3277334759351191   F   F   F
  0.0975085758261116  0.8750000000000000  0.3929998791785110   F   F   F
  0.9024914241738884  0.8750000000000000  0.3929998791785110   F   F   F
  0.2500000000000000  0.7500000000000000  0.3512661616004067   F   F   F
  0.7500000000000000  0.7500000000000000  0.4347335967566082   F   F   F
  0.8475085758261116  0.8750000000000000  0.5000000000000000   F   F   F
  0.1524914241738884  0.8750000000000000  0.5000000000000000   F   F   F
  0.0000000000000000  0.7500000000000000  0.4582662824218957   F   F   F
  0.0000000000000000  0.7500000000000000  0.5417337175781043   F   F   F
  0.1004204716649113  0.8749581876170467  0.6078499429265847   T   T   T
  0.8995882412692708  0.8749561277938511  0.6078517849624632   T   T   T
  0.7483889803661370  0.7498551594033742  0.5661192176754497   T   T   T
  0.7490145672150561  0.7498082745742849  0.6508232550717992   T   T   T
  0.8429587022033331  0.8744999162392162  0.7201009922436725   T   T   T
  0.1570503653582023  0.8745125394799089  0.7200875731024894   T   T   T
  0.0000021502369165  0.7494197809621284  0.6722013551039936   T   T   T
  0.0000046351121696  0.7498135746712293  0.7557402867099583   T   T   T
 
  0.00000000E+00  0.00000000E+00  0.00000000E+00
  0.00000000E+00  0.00000000E+00  0.00000000E+00
  0.00000000E+00  0.00000000E+00  0.00000000E+00
  0.00000000E+00  0.00000000E+00  0.00000000E+00
  0.00000000E+00  0.00000000E+00  0.00000000E+00
  0.00000000E+00  0.00000000E+00  0.00000000E+00
  0.00000000E+00  0.00000000E+00  0.00000000E+00
  0.00000000E+00  0.00000000E+00  0.00000000E+00
  0.00000000E+00  0.00000000E+00  0.00000000E+00
  0.00000000E+00  0.00000000E+00  0.00000000E+00
  0.00000000E+00  0.00000000E+00  0.00000000E+00
  0.00000000E+00  0.00000000E+00  0.00000000E+00
  0.00000000E+00  0.00000000E+00  0.00000000E+00
  0.00000000E+00  0.00000000E+00  0.00000000E+00
  0.00000000E+00  0.00000000E+00  0.00000000E+00
  0.00000000E+00  0.00000000E+00  0.00000000E+00
  0.00000000E+00  0.00000000E+00  0.00000000E+00
  0.00000000E+00  0.00000000E+00  0.00000000E+00
  0.00000000E+00  0.00000000E+00  0.00000000E+00
  0.00000000E+00  0.00000000E+00  0.00000000E+00
  0.00000000E+00  0.00000000E+00  0.00000000E+00
  0.00000000E+00  0.00000000E+00  0.00000000E+00
  0.00000000E+00  0.00000000E+00  0.00000000E+00
  0.00000000E+00  0.00000000E+00  0.00000000E+00
  0.00000000E+00  0.00000000E+00  0.00000000E+00
  0.00000000E+00  0.00000000E+00  0.00000000E+00
  0.00000000E+00  0.00000000E+00  0.00000000E+00
  0.00000000E+00  0.00000000E+00  0.00000000E+00
  0.00000000E+00  0.00000000E+00  0.00000000E+00
  0.00000000E+00  0.00000000E+00  0.00000000E+00
  0.00000000E+00  0.00000000E+00  0.00000000E+00
  0.00000000E+00  0.00000000E+00  0.00000000E+00
  0.00000000E+00  0.00000000E+00  0.00000000E+00
  0.00000000E+00  0.00000000E+00  0.00000000E+00
  0.00000000E+00  0.00000000E+00  0.00000000E+00
  0.00000000E+00  0.00000000E+00  0.00000000E+00
  0.00000000E+00  0.00000000E+00  0.00000000E+00
  0.00000000E+00  0.00000000E+00  0.00000000E+00
  0.00000000E+00  0.00000000E+00  0.00000000E+00
  0.00000000E+00  0.00000000E+00  0.00000000E+00
  0.00000000E+00  0.00000000E+00  0.00000000E+00
  0.00000000E+00  0.00000000E+00  0.00000000E+00
  0.00000000E+00  0.00000000E+00  0.00000000E+00
  0.00000000E+00  0.00000000E+00  0.00000000E+00
  0.00000000E+00  0.00000000E+00  0.00000000E+00
  0.00000000E+00  0.00000000E+00  0.00000000E+00
  0.00000000E+00  0.00000000E+00  0.00000000E+00
  0.00000000E+00  0.00000000E+00  0.00000000E+00
  0.00000000E+00  0.00000000E+00  0.00000000E+00
  0.00000000E+00  0.00000000E+00  0.00000000E+00
  0.00000000E+00  0.00000000E+00  0.00000000E+00
  0.00000000E+00  0.00000000E+00  0.00000000E+00
  0.00000000E+00  0.00000000E+00  0.00000000E+00
  0.00000000E+00  0.00000000E+00  0.00000000E+00
  0.00000000E+00  0.00000000E+00  0.00000000E+00
  0.00000000E+00  0.00000000E+00  0.00000000E+00
  0.00000000E+00  0.00000000E+00  0.00000000E+00
  0.00000000E+00  0.00000000E+00  0.00000000E+00
  0.00000000E+00  0.00000000E+00  0.00000000E+00
  0.00000000E+00  0.00000000E+00  0.00000000E+00
  0.00000000E+00  0.00000000E+00  0.00000000E+00
  0.00000000E+00  0.00000000E+00  0.00000000E+00
  0.00000000E+00  0.00000000E+00  0.00000000E+00
  0.00000000E+00  0.00000000E+00  0.00000000E+00
  0.00000000E+00  0.00000000E+00  0.00000000E+00
  0.00000000E+00  0.00000000E+00  0.00000000E+00
  0.00000000E+00  0.00000000E+00  0.00000000E+00
  0.00000000E+00  0.00000000E+00  0.00000000E+00
  0.00000000E+00  0.00000000E+00  0.00000000E+00
  0.00000000E+00  0.00000000E+00  0.00000000E+00
  0.00000000E+00  0.00000000E+00  0.00000000E+00
  0.00000000E+00  0.00000000E+00  0.00000000E+00
  0.00000000E+00  0.00000000E+00  0.00000000E+00
  0.00000000E+00  0.00000000E+00  0.00000000E+00
  0.00000000E+00  0.00000000E+00  0.00000000E+00
  0.00000000E+00  0.00000000E+00  0.00000000E+00
  0.00000000E+00  0.00000000E+00  0.00000000E+00
  0.00000000E+00  0.00000000E+00  0.00000000E+00
  0.00000000E+00  0.00000000E+00  0.00000000E+00
  0.00000000E+00  0.00000000E+00  0.00000000E+00
  0.00000000E+00  0.00000000E+00  0.00000000E+00
  0.00000000E+00  0.00000000E+00  0.00000000E+00
  0.00000000E+00  0.00000000E+00  0.00000000E+00
  0.00000000E+00  0.00000000E+00  0.00000000E+00
  0.00000000E+00  0.00000000E+00  0.00000000E+00
  0.00000000E+00  0.00000000E+00  0.00000000E+00
  0.00000000E+00  0.00000000E+00  0.00000000E+00
  0.00000000E+00  0.00000000E+00  0.00000000E+00
  0.00000000E+00  0.00000000E+00  0.00000000E+00
  0.00000000E+00  0.00000000E+00  0.00000000E+00
  0.00000000E+00  0.00000000E+00  0.00000000E+00
  0.00000000E+00  0.00000000E+00  0.00000000E+00
  0.00000000E+00  0.00000000E+00  0.00000000E+00
  0.00000000E+00  0.00000000E+00  0.00000000E+00
  0.00000000E+00  0.00000000E+00  0.00000000E+00
  0.00000000E+00  0.00000000E+00  0.00000000E+00
  0.00000000E+00  0.00000000E+00  0.00000000E+00
  0.00000000E+00  0.00000000E+00  0.00000000E+00
  0.00000000E+00  0.00000000E+00  0.00000000E+00
  0.00000000E+00  0.00000000E+00  0.00000000E+00
  0.00000000E+00  0.00000000E+00  0.00000000E+00
  0.00000000E+00  0.00000000E+00  0.00000000E+00
  0.00000000E+00  0.00000000E+00  0.00000000E+00
  0.00000000E+00  0.00000000E+00  0.00000000E+00
  0.00000000E+00  0.00000000E+00  0.00000000E+00
  0.00000000E+00  0.00000000E+00  0.00000000E+00
  0.00000000E+00  0.00000000E+00  0.00000000E+00
  0.00000000E+00  0.00000000E+00  0.00000000E+00
  0.00000000E+00  0.00000000E+00  0.00000000E+00
  0.00000000E+00  0.00000000E+00  0.00000000E+00
  0.00000000E+00  0.00000000E+00  0.00000000E+00
  0.00000000E+00  0.00000000E+00  0.00000000E+00
  0.00000000E+00  0.00000000E+00  0.00000000E+00
  0.00000000E+00  0.00000000E+00  0.00000000E+00
  0.00000000E+00  0.00000000E+00  0.00000000E+00
  0.00000000E+00  0.00000000E+00  0.00000000E+00
  0.00000000E+00  0.00000000E+00  0.00000000E+00
  0.00000000E+00  0.00000000E+00  0.00000000E+00
  0.00000000E+00  0.00000000E+00  0.00000000E+00
  0.00000000E+00  0.00000000E+00  0.00000000E+00
  0.00000000E+00  0.00000000E+00  0.00000000E+00
  0.00000000E+00  0.00000000E+00  0.00000000E+00
  0.00000000E+00  0.00000000E+00  0.00000000E+00
  0.00000000E+00  0.00000000E+00  0.00000000E+00
  0.00000000E+00  0.00000000E+00  0.00000000E+00
  0.00000000E+00  0.00000000E+00  0.00000000E+00
  0.00000000E+00  0.00000000E+00  0.00000000E+00
  0.00000000E+00  0.00000000E+00  0.00000000E+00
  0.00000000E+00  0.00000000E+00  0.00000000E+00
  0.00000000E+00  0.00000000E+00  0.00000000E+00
  0.00000000E+00  0.00000000E+00  0.00000000E+00
  0.00000000E+00  0.00000000E+00  0.00000000E+00
  0.00000000E+00  0.00000000E+00  0.00000000E+00
  0.00000000E+00  0.00000000E+00  0.00000000E+00
  0.00000000E+00  0.00000000E+00  0.00000000E+00
  0.00000000E+00  0.00000000E+00  0.00000000E+00
  0.00000000E+00  0.00000000E+00  0.00000000E+00
  0.00000000E+00  0.00000000E+00  0.00000000E+00
  0.00000000E+00  0.00000000E+00  0.00000000E+00
  0.00000000E+00  0.00000000E+00  0.00000000E+00
  0.00000000E+00  0.00000000E+00  0.00000000E+00
  0.00000000E+00  0.00000000E+00  0.00000000E+00
  0.00000000E+00  0.00000000E+00  0.00000000E+00
  0.00000000E+00  0.00000000E+00  0.00000000E+00
  0.00000000E+00  0.00000000E+00  0.00000000E+00
  0.00000000E+00  0.00000000E+00  0.00000000E+00
  0.00000000E+00  0.00000000E+00  0.00000000E+00
  0.00000000E+00  0.00000000E+00  0.00000000E+00
  0.00000000E+00  0.00000000E+00  0.00000000E+00
  0.00000000E+00  0.00000000E+00  0.00000000E+00
  0.00000000E+00  0.00000000E+00  0.00000000E+00
  0.00000000E+00  0.00000000E+00  0.00000000E+00
  0.00000000E+00  0.00000000E+00  0.00000000E+00
  0.00000000E+00  0.00000000E+00  0.00000000E+00
  0.00000000E+00  0.00000000E+00  0.00000000E+00
  0.00000000E+00  0.00000000E+00  0.00000000E+00
  0.00000000E+00  0.00000000E+00  0.00000000E+00
  0.00000000E+00  0.00000000E+00  0.00000000E+00
  0.00000000E+00  0.00000000E+00  0.00000000E+00
  0.00000000E+00  0.00000000E+00  0.00000000E+00
  0.00000000E+00  0.00000000E+00  0.00000000E+00
  0.00000000E+00  0.00000000E+00  0.00000000E+00
  0.00000000E+00  0.00000000E+00  0.00000000E+00
  0.00000000E+00  0.00000000E+00  0.00000000E+00
  0.00000000E+00  0.00000000E+00  0.00000000E+00
  0.00000000E+00  0.00000000E+00  0.00000000E+00
  0.00000000E+00  0.00000000E+00  0.00000000E+00
  0.00000000E+00  0.00000000E+00  0.00000000E+00
  0.00000000E+00  0.00000000E+00  0.00000000E+00
  0.00000000E+00  0.00000000E+00  0.00000000E+00
  0.00000000E+00  0.00000000E+00  0.00000000E+00
  0.00000000E+00  0.00000000E+00  0.00000000E+00
  0.00000000E+00  0.00000000E+00  0.00000000E+00
  0.00000000E+00  0.00000000E+00  0.00000000E+00
  0.00000000E+00  0.00000000E+00  0.00000000E+00
  0.00000000E+00  0.00000000E+00  0.00000000E+00
  0.00000000E+00  0.00000000E+00  0.00000000E+00
  0.00000000E+00  0.00000000E+00  0.00000000E+00
  0.00000000E+00  0.00000000E+00  0.00000000E+00
  0.00000000E+00  0.00000000E+00  0.00000000E+00
  0.00000000E+00  0.00000000E+00  0.00000000E+00
  0.00000000E+00  0.00000000E+00  0.00000000E+00
  0.00000000E+00  0.00000000E+00  0.00000000E+00
  0.00000000E+00  0.00000000E+00  0.00000000E+00
  0.00000000E+00  0.00000000E+00  0.00000000E+00
  0.00000000E+00  0.00000000E+00  0.00000000E+00
  0.00000000E+00  0.00000000E+00  0.00000000E+00
  0.00000000E+00  0.00000000E+00  0.00000000E+00
  0.00000000E+00  0.00000000E+00  0.00000000E+00
  0.00000000E+00  0.00000000E+00  0.00000000E+00
  0.00000000E+00  0.00000000E+00  0.00000000E+00
  0.00000000E+00  0.00000000E+00  0.00000000E+00
  0.00000000E+00  0.00000000E+00  0.00000000E+00
  0.00000000E+00  0.00000000E+00  0.00000000E+00
  0.00000000E+00  0.00000000E+00  0.00000000E+00
  0.00000000E+00  0.00000000E+00  0.00000000E+00
  0.00000000E+00  0.00000000E+00  0.00000000E+00
  0.00000000E+00  0.00000000E+00  0.00000000E+00
  0.00000000E+00  0.00000000E+00  0.00000000E+00
  0.00000000E+00  0.00000000E+00  0.00000000E+00
  0.00000000E+00  0.00000000E+00  0.00000000E+00
  0.00000000E+00  0.00000000E+00  0.00000000E+00
  0.00000000E+00  0.00000000E+00  0.00000000E+00
  0.00000000E+00  0.00000000E+00  0.00000000E+00
  0.00000000E+00  0.00000000E+00  0.00000000E+00
  0.00000000E+00  0.00000000E+00  0.00000000E+00
  0.00000000E+00  0.00000000E+00  0.00000000E+00
  0.00000000E+00  0.00000000E+00  0.00000000E+00
  0.00000000E+00  0.00000000E+00  0.00000000E+00
  0.00000000E+00  0.00000000E+00  0.00000000E+00
  0.00000000E+00  0.00000000E+00  0.00000000E+00
  0.00000000E+00  0.00000000E+00  0.00000000E+00
  0.00000000E+00  0.00000000E+00  0.00000000E+00
  0.00000000E+00  0.00000000E+00  0.00000000E+00
  0.00000000E+00  0.00000000E+00  0.00000000E+00
  0.00000000E+00  0.00000000E+00  0.00000000E+00
  0.00000000E+00  0.00000000E+00  0.00000000E+00
  0.00000000E+00  0.00000000E+00  0.00000000E+00
  0.00000000E+00  0.00000000E+00  0.00000000E+00
  0.00000000E+00  0.00000000E+00  0.00000000E+00
  0.00000000E+00  0.00000000E+00  0.00000000E+00
  0.00000000E+00  0.00000000E+00  0.00000000E+00
  0.00000000E+00  0.00000000E+00  0.00000000E+00
  0.00000000E+00  0.00000000E+00  0.00000000E+00
  0.00000000E+00  0.00000000E+00  0.00000000E+00
  0.00000000E+00  0.00000000E+00  0.00000000E+00
  0.00000000E+00  0.00000000E+00  0.00000000E+00
  0.00000000E+00  0.00000000E+00  0.00000000E+00
  0.00000000E+00  0.00000000E+00  0.00000000E+00
  0.00000000E+00  0.00000000E+00  0.00000000E+00
  0.00000000E+00  0.00000000E+00  0.00000000E+00
  0.00000000E+00  0.00000000E+00  0.00000000E+00
  0.00000000E+00  0.00000000E+00  0.00000000E+00
  0.00000000E+00  0.00000000E+00  0.00000000E+00
  0.00000000E+00  0.00000000E+00  0.00000000E+00
  0.00000000E+00  0.00000000E+00  0.00000000E+00
  0.00000000E+00  0.00000000E+00  0.00000000E+00
  0.00000000E+00  0.00000000E+00  0.00000000E+00
  0.00000000E+00  0.00000000E+00  0.00000000E+00
