Ti  O                                   
   1.00000000000000     
    13.1414240571821228    0.0000000000000000    0.0000000000000000
     0.0000000000000000   11.8675837719843074    0.0000000000000000
     0.0000000000000000    0.0000000000000000   30.7042271454677689
   Ti   O 
    80   159
Selective dynamics
Direct
  0.5000000000000000  0.1250000000000000  0.2859997583570220   F   F   F
  0.7500000000000000  0.0000000000000000  0.2859997583570220   F   F   F
  0.2500000000000000  0.1250000000000000  0.3929998791785110   F   F   F
  0.5000000000000000  0.0000000000000000  0.3929998791785110   F   F   F
  0.5000000000000000  0.1250000000000000  0.5000000000000000   F   F   F
  0.7500000000000000  0.0000000000000000  0.5000000000000000   F   F   F
  0.7517681947733890  0.1248547927485078  0.6052217416733423   T   T   T
  0.5000170559230330 -0.0000167482900984  0.6148913285600438   T   T   T
  0.5001772180094209  0.1223152871954424  0.7254954743080531   T   T   T
  0.7479646369809859 -0.0000266016525262  0.7096731210495208   T   T   T
  0.5000000000000000  0.3750000000000000  0.2859997583570220   F   F   F
  0.7500000000000000  0.2500000000000000  0.2859997583570220   F   F   F
  0.2500000000000000  0.3750000000000000  0.3929998791785110   F   F   F
  0.5000000000000000  0.2500000000000000  0.3929998791785110   F   F   F
  0.5000000000000000  0.3750000000000000  0.5000000000000000   F   F   F
  0.7500000000000000  0.2500000000000000  0.5000000000000000   F   F   F
  0.7514384889524843  0.3750401198951193  0.6052539394534858   T   T   T
  0.5000047911705664  0.2472387994215339  0.6046395405222791   T   T   T
  0.4999941668052539  0.3567786801000740  0.7098304699170136   T   T   T
  0.7511386281916423  0.2498562353871240  0.7098155869120306   T   T   T
  0.5000000000000000  0.6250000000000000  0.2859997583570220   F   F   F
  0.7500000000000000  0.5000000000000000  0.2859997583570220   F   F   F
  0.2500000000000000  0.6250000000000000  0.3929998791785110   F   F   F
  0.5000000000000000  0.5000000000000000  0.3929998791785110   F   F   F
  0.5000000000000000  0.6250000000000000  0.5000000000000000   F   F   F
  0.7500000000000000  0.5000000000000000  0.5000000000000000   F   F   F
  0.7514380921681606  0.6249584039136287  0.6052524815783028   T   T   T
  0.4999944497831014  0.4999910957858179  0.6071595797435916   T   T   T
  0.4999894158640598  0.6431504877183821  0.7098179211853036   T   T   T
  0.7461989097684543  0.4999973152607928  0.7094801160175545   T   T   T
  0.5000000000000000  0.8750000000000000  0.2859997583570220   F   F   F
  0.7500000000000000  0.7500000000000000  0.2859997583570220   F   F   F
  0.2500000000000000  0.8750000000000000  0.3929998791785110   F   F   F
  0.5000000000000000  0.7500000000000000  0.3929998791785110   F   F   F
  0.5000000000000000  0.8750000000000000  0.5000000000000000   F   F   F
  0.7500000000000000  0.7500000000000000  0.5000000000000000   F   F   F
  0.7517791339856272  0.8751537159520038  0.6052168437818795   T   T   T
  0.5000119890036563  0.7527353519302646  0.6046361473833911   T   T   T
  0.4999992631820690  0.8774925804482648  0.7255125069598085   T   T   T
  0.7511174583808823  0.7501425642073006  0.7098166318219935   T   T   T
  0.0000000000000000  0.1250000000000000  0.2859997583570220   F   F   F
  0.2500000000000000  0.0000000000000000  0.2859997583570220   F   F   F
  0.7500000000000000  0.1250000000000000  0.3929998791785110   F   F   F
  0.0000000000000000  0.0000000000000000  0.3929998791785110   F   F   F
  0.0000000000000000  0.1250000000000000  0.5000000000000000   F   F   F
  0.2500000000000000  0.0000000000000000  0.5000000000000000   F   F   F
  0.2482755400067202  0.1248667073413540  0.6051970892688422   T   T   T
  0.0000128138743160  0.0000061360672958  0.6108186837916595   T   T   T
  0.0000235979369073  0.1249518291432202  0.7205801862340403   T   T   T
  0.2521471738130074  0.0000153512399350  0.7096294163342131   T   T   T
  0.0000000000000000  0.3750000000000000  0.2859997583570220   F   F   F
  0.2500000000000000  0.2500000000000000  0.2859997583570220   F   F   F
  0.7500000000000000  0.3750000000000000  0.3929998791785110   F   F   F
  0.0000000000000000  0.2500000000000000  0.3929998791785110   F   F   F
  0.0000000000000000  0.3750000000000000  0.5000000000000000   F   F   F
  0.2500000000000000  0.2500000000000000  0.5000000000000000   F   F   F
  0.2485631180496808  0.3750476936036669  0.6052551743063083   T   T   T
  0.0000210880033892  0.2502292966739534  0.6108201254913046   T   T   T
  0.0000105068378227  0.3752981691617138  0.7208328727518712   T   T   T
  0.2488880831406301  0.2498235418056774  0.7098148518788727   T   T   T
  0.0000000000000000  0.6250000000000000  0.2859997583570220   F   F   F
  0.2500000000000000  0.5000000000000000  0.2859997583570220   F   F   F
  0.7500000000000000  0.6250000000000000  0.3929998791785110   F   F   F
  0.0000000000000000  0.5000000000000000  0.3929998791785110   F   F   F
  0.0000000000000000  0.6250000000000000  0.5000000000000000   F   F   F
  0.2500000000000000  0.5000000000000000  0.5000000000000000   F   F   F
  0.2485671520200889  0.6249535721122741  0.6052567170608859   T   T   T
 -0.0000083931198555  0.4999991374964707  0.6108809125231882   T   T   T
 -0.0000034458192372  0.6247003352291384  0.7208345882990658   T   T   T
  0.2537894015669894  0.4999844826462629  0.7094837622472296   T   T   T
  0.0000000000000000  0.8750000000000000  0.2859997583570220   F   F   F
  0.2500000000000000  0.7500000000000000  0.2859997583570220   F   F   F
  0.7500000000000000  0.8750000000000000  0.3929998791785110   F   F   F
  0.0000000000000000  0.7500000000000000  0.3929998791785110   F   F   F
  0.0000000000000000  0.8750000000000000  0.5000000000000000   F   F   F
  0.2500000000000000  0.7500000000000000  0.5000000000000000   F   F   F
  0.2482709827681683  0.8751313922777473  0.6052002619042665   T   T   T
  0.0000286327262569  0.7497774789416064  0.6108185628402806   T   T   T
  0.0000309733189377  0.8750464377104132  0.7205811916174559   T   T   T
  0.2488606683265473  0.7501594134819243  0.7098094911716414   T   T   T
  0.3475085758261116  0.1250000000000000  0.2859997583570220   F   F   F
  0.6524914241738884  0.1250000000000000  0.2859997583570220   F   F   F
  0.5000000000000000  0.0000000000000000  0.2442660407789177   F   F   F
  0.5000000000000000  0.0000000000000000  0.3277334759351191   F   F   F
  0.5975085758261116  0.1250000000000000  0.3929998791785110   F   F   F
  0.4024914241738884  0.1250000000000000  0.3929998791785110   F   F   F
  0.7500000000000000  0.0000000000000000  0.3512661616004067   F   F   F
  0.2500000000000000  0.0000000000000000  0.4347335967566082   F   F   F
  0.3475085758261116  0.1250000000000000  0.5000000000000000   F   F   F
  0.6524914241738884  0.1250000000000000  0.5000000000000000   F   F   F
  0.5000000000000000  0.0000000000000000  0.4582662824218957   F   F   F
  0.5000000000000000  0.0000000000000000  0.5417337175781043   F   F   F
  0.5983987640283156  0.1254115554244577  0.6083270058679969   T   T   T
  0.4015970075707410  0.1254142794635165  0.6083214615093708   T   T   T
  0.2509926457284542 -0.0000062568731919  0.5661218307065379   T   T   T
  0.2521088642133755  0.0000004642175092  0.6506288405508036   T   T   T
  0.3444496139065003  0.1246808701575017  0.7218230430099284   T   T   T
  0.6555838536397559  0.1246697909565030  0.7218560488364656   T   T   T
  0.5000193619467181 -0.0000159018127091  0.6761305035287435   T   T   T
  0.5000181435612990 -0.0000484100042446  0.7615539478395162   T   T   T
  0.3475085758261116  0.3750000000000000  0.2859997583570220   F   F   F
  0.6524914241738884  0.3750000000000000  0.2859997583570220   F   F   F
  0.5000000000000000  0.2500000000000000  0.2442660407789177   F   F   F
  0.5000000000000000  0.2500000000000000  0.3277334759351191   F   F   F
  0.5975085758261116  0.3750000000000000  0.3929998791785110   F   F   F
  0.4024914241738884  0.3750000000000000  0.3929998791785110   F   F   F
  0.7500000000000000  0.2500000000000000  0.3512661616004067   F   F   F
  0.2500000000000000  0.2500000000000000  0.4347335967566082   F   F   F
  0.3475085758261116  0.3750000000000000  0.5000000000000000   F   F   F
  0.6524914241738884  0.3750000000000000  0.5000000000000000   F   F   F
  0.5000000000000000  0.2500000000000000  0.4582662824218957   F   F   F
  0.5000000000000000  0.2500000000000000  0.5417337175781043   F   F   F
  0.5980241778481395  0.3755708100104969  0.6087478195954853   T   T   T
  0.4019705836955673  0.3755715623826777  0.6087512333429406   T   T   T
  0.2516137352857145  0.2501679320757140  0.5661121056622820   T   T   T
  0.2509866945975540  0.2501794754167079  0.6508126037867018   T   T   T
  0.3481641424926513  0.3763464373925096  0.7207034811789935   T   T   T
  0.6518479573197800  0.3763374689721909  0.7207040588816165   T   T   T
  0.5000169453682043  0.2429881480820554  0.6726798219041596   T   T   T
  0.5000304198903669  0.2550670929373314  0.7557182113400586   T   T   T
  0.3475085758261116  0.6250000000000000  0.2859997583570220   F   F   F
  0.6524914241738884  0.6250000000000000  0.2859997583570220   F   F   F
  0.5000000000000000  0.5000000000000000  0.2442660407789177   F   F   F
  0.5000000000000000  0.5000000000000000  0.3277334759351191   F   F   F
  0.5975085758261116  0.6250000000000000  0.3929998791785110   F   F   F
  0.4024914241738884  0.6250000000000000  0.3929998791785110   F   F   F
  0.7500000000000000  0.5000000000000000  0.3512661616004067   F   F   F
  0.2500000000000000  0.5000000000000000  0.4347335967566082   F   F   F
  0.3475085758261116  0.6250000000000000  0.5000000000000000   F   F   F
  0.6524914241738884  0.6250000000000000  0.5000000000000000   F   F   F
  0.5000000000000000  0.5000000000000000  0.4582662824218957   F   F   F
  0.5000000000000000  0.5000000000000000  0.5417337175781043   F   F   F
  0.5980242915667973  0.6244323548241723  0.6087523357078020   T   T   T
  0.4019703618941809  0.6244299024965952  0.6087520054117681   T   T   T
  0.2514974624978715  0.5000043214729256  0.5660534611874665   T   T   T
  0.2510692358580627  0.4999984145271602  0.6505968201321350   T   T   T
  0.3481616165756535  0.6236352831817700  0.7207118663745957   T   T   T
  0.6518341911983494  0.6236395555011651  0.7207102351573303   T   T   T
  0.5000050047647552  0.5000028414000537  0.6787657629595467   T   T   T
  0.3475085758261116  0.8750000000000000  0.2859997583570220   F   F   F
  0.6524914241738884  0.8750000000000000  0.2859997583570220   F   F   F
  0.5000000000000000  0.7500000000000000  0.2442660407789177   F   F   F
  0.5000000000000000  0.7500000000000000  0.3277334759351191   F   F   F
  0.5975085758261116  0.8750000000000000  0.3929998791785110   F   F   F
  0.4024914241738884  0.8750000000000000  0.3929998791785110   F   F   F
  0.7500000000000000  0.7500000000000000  0.3512661616004067   F   F   F
  0.2500000000000000  0.7500000000000000  0.4347335967566082   F   F   F
  0.3475085758261116  0.8750000000000000  0.5000000000000000   F   F   F
  0.6524914241738884  0.8750000000000000  0.5000000000000000   F   F   F
  0.5000000000000000  0.7500000000000000  0.4582662824218957   F   F   F
  0.5000000000000000  0.7500000000000000  0.5417337175781043   F   F   F
  0.5983999319672534  0.8745674651916570  0.6083333250854858   T   T   T
  0.4015917656080107  0.8745669654182942  0.6083298759745759   T   T   T
  0.2516140665797199  0.7498366558423620  0.5661131812439734   T   T   T
  0.2509815110421298  0.7498116147148310  0.6508172557919727   T   T   T
  0.3444458040543786  0.8752782922691725  0.7218307388451916   T   T   T
  0.6555732349088982  0.8752888822185576  0.7218435935390585   T   T   T
  0.4999964428957520  0.7570222156085997  0.6726912251812835   T   T   T
  0.5000041381502195  0.7448130529019106  0.7557389591797530   T   T   T
  0.8475085758261116  0.1250000000000000  0.2859997583570220   F   F   F
  0.1524914241738884  0.1250000000000000  0.2859997583570220   F   F   F
  0.0000000000000000  0.0000000000000000  0.2442660407789177   F   F   F
  0.0000000000000000  0.0000000000000000  0.3277334759351191   F   F   F
  0.0975085758261116  0.1250000000000000  0.3929998791785110   F   F   F
  0.9024914241738884  0.1250000000000000  0.3929998791785110   F   F   F
  0.2500000000000000  0.0000000000000000  0.3512661616004067   F   F   F
  0.7500000000000000  0.0000000000000000  0.4347335967566082   F   F   F
  0.8475085758261116  0.1250000000000000  0.5000000000000000   F   F   F
  0.1524914241738884  0.1250000000000000  0.5000000000000000   F   F   F
  0.0000000000000000  0.0000000000000000  0.4582662824218957   F   F   F
  0.0000000000000000  0.0000000000000000  0.5417337175781043   F   F   F
  0.1004214098897246  0.1250412356413277  0.6078498089524219   T   T   T
  0.8995888833463315  0.1250444032307347  0.6078522174422779   T   T   T
  0.7490090945087804  0.0000057581224246  0.5661370836126428   T   T   T
  0.7479214495950344 -0.0000057060597978  0.6506620493154995   T   T   T
  0.8429531282025436  0.1254849579904722  0.7201029706515614   T   T   T
  0.1570480481333274  0.1254723813456429  0.7200813664783169   T   T   T
 -0.0000055610549883  0.0000009024579608  0.6721758254064130   T   T   T
 -0.0000060996235735 -0.0000042948058266  0.7556987765642892   T   T   T
  0.8475085758261116  0.3750000000000000  0.2859997583570220   F   F   F
  0.1524914241738884  0.3750000000000000  0.2859997583570220   F   F   F
  0.0000000000000000  0.2500000000000000  0.2442660407789177   F   F   F
  0.0000000000000000  0.2500000000000000  0.3277334759351191   F   F   F
  0.0975085758261116  0.3750000000000000  0.3929998791785110   F   F   F
  0.9024914241738884  0.3750000000000000  0.3929998791785110   F   F   F
  0.2500000000000000  0.2500000000000000  0.3512661616004067   F   F   F
  0.7500000000000000  0.2500000000000000  0.4347335967566082   F   F   F
  0.8475085758261116  0.3750000000000000  0.5000000000000000   F   F   F
  0.1524914241738884  0.3750000000000000  0.5000000000000000   F   F   F
  0.0000000000000000  0.2500000000000000  0.4582662824218957   F   F   F
  0.0000000000000000  0.2500000000000000  0.5417337175781043   F   F   F
  0.1003657271609161  0.3750925298354257  0.6077716100650851   T   T   T
  0.8996418874384183  0.3750899836534506  0.6077716718432802   T   T   T
  0.7483889655684444  0.2501445843235556  0.5661193084108889   T   T   T
  0.7490138576668498  0.2501856240371649  0.6508269412750978   T   T   T
  0.8412067135399252  0.3753165527894596  0.7208858529072359   T   T   T
  0.1587990188790607  0.3753163526733601  0.7208881611259761   T   T   T
 -0.0000024618553789  0.2505842162432751  0.6722027397407813   T   T   T
 -0.0000012146150182  0.2501891039902054  0.7557425690310116   T   T   T
  0.8475085758261116  0.6250000000000000  0.2859997583570220   F   F   F
  0.1524914241738884  0.6250000000000000  0.2859997583570220   F   F   F
  0.0000000000000000  0.5000000000000000  0.2442660407789177   F   F   F
  0.0000000000000000  0.5000000000000000  0.3277334759351191   F   F   F
  0.0975085758261116  0.6250000000000000  0.3929998791785110   F   F   F
  0.9024914241738884  0.6250000000000000  0.3929998791785110   F   F   F
  0.2500000000000000  0.5000000000000000  0.3512661616004067   F   F   F
  0.7500000000000000  0.5000000000000000  0.4347335967566082   F   F   F
  0.8475085758261116  0.6250000000000000  0.5000000000000000   F   F   F
  0.1524914241738884  0.6250000000000000  0.5000000000000000   F   F   F
  0.0000000000000000  0.5000000000000000  0.4582662824218957   F   F   F
  0.0000000000000000  0.5000000000000000  0.5417337175781043   F   F   F
  0.1003660349732713  0.6249135626762889  0.6077701121370398   T   T   T
  0.8996452426171649  0.6249171580884835  0.6077716195958436   T   T   T
  0.7485025360345013  0.4999980665840394  0.5660504066603061   T   T   T
  0.7489239945628725  0.4999981879312042  0.6505964589030321   T   T   T
  0.8412020250035437  0.6246638258683672  0.7208828660012870   T   T   T
  0.1587914982202085  0.6246648230507822  0.7208849987459464   T   T   T
  0.0000008446991481  0.5000013278239864  0.6723972282561740   T   T   T
 -0.0000094275770979  0.4999971082267052  0.7560143386937118   T   T   T
  0.8475085758261116  0.8750000000000000  0.2859997583570220   F   F   F
  0.1524914241738884  0.8750000000000000  0.2859997583570220   F   F   F
  0.0000000000000000  0.7500000000000000  0.2442660407789177   F   F   F
  0.0000000000000000  0.7500000000000000  0.3277334759351191   F   F   F
  0.0975085758261116  0.8750000000000000  0.3929998791785110   F   F   F
  0.9024914241738884  0.8750000000000000  0.3929998791785110   F   F   F
  0.2500000000000000  0.7500000000000000  0.3512661616004067   F   F   F
  0.7500000000000000  0.7500000000000000  0.4347335967566082   F   F   F
  0.8475085758261116  0.8750000000000000  0.5000000000000000   F   F   F
  0.1524914241738884  0.8750000000000000  0.5000000000000000   F   F   F
  0.0000000000000000  0.7500000000000000  0.4582662824218957   F   F   F
  0.0000000000000000  0.7500000000000000  0.5417337175781043   F   F   F
  0.1004204716649145  0.8749581876170486  0.6078499429265816   T   T   T
  0.8995882412692676  0.8749561277938506  0.6078517849624628   T   T   T
  0.7483889803661384  0.7498551594033738  0.5661192176754504   T   T   T
  0.7490145672150536  0.7498082745742847  0.6508232550717973   T   T   T
  0.8429587022033296  0.8744999162392191  0.7201009922436716   T   T   T
  0.1570503653582015  0.8745125394799077  0.7200875731024919   T   T   T
  0.0000021502369139  0.7494197809621268  0.6722013551039965   T   T   T
  0.0000046351121686  0.7498135746712296  0.7557402867099616   T   T   T
 
  0.00000000E+00  0.00000000E+00  0.00000000E+00
  0.00000000E+00  0.00000000E+00  0.00000000E+00
  0.00000000E+00  0.00000000E+00  0.00000000E+00
  0.00000000E+00  0.00000000E+00  0.00000000E+00
  0.00000000E+00  0.00000000E+00  0.00000000E+00
  0.00000000E+00  0.00000000E+00  0.00000000E+00
  0.00000000E+00  0.00000000E+00  0.00000000E+00
  0.00000000E+00  0.00000000E+00  0.00000000E+00
  0.00000000E+00  0.00000000E+00  0.00000000E+00
  0.00000000E+00  0.00000000E+00  0.00000000E+00
  0.00000000E+00  0.00000000E+00  0.00000000E+00
  0.00000000E+00  0.00000000E+00  0.00000000E+00
  0.00000000E+00  0.00000000E+00  0.00000000E+00
  0.00000000E+00  0.00000000E+00  0.00000000E+00
  0.00000000E+00  0.00000000E+00  0.00000000E+00
  0.00000000E+00  0.00000000E+00  0.00000000E+00
  0.00000000E+00  0.00000000E+00  0.00000000E+00
  0.00000000E+00  0.00000000E+00  0.00000000E+00
  0.00000000E+00  0.00000000E+00  0.00000000E+00
  0.00000000E+00  0.00000000E+00  0.00000000E+00
  0.00000000E+00  0.00000000E+00  0.00000000E+00
  0.00000000E+00  0.00000000E+00  0.00000000E+00
  0.00000000E+00  0.00000000E+00  0.00000000E+00
  0.00000000E+00  0.00000000E+00  0.00000000E+00
  0.00000000E+00  0.00000000E+00  0.00000000E+00
  0.00000000E+00  0.00000000E+00  0.00000000E+00
  0.00000000E+00  0.00000000E+00  0.00000000E+00
  0.00000000E+00  0.00000000E+00  0.00000000E+00
  0.00000000E+00  0.00000000E+00  0.00000000E+00
  0.00000000E+00  0.00000000E+00  0.00000000E+00
  0.00000000E+00  0.00000000E+00  0.00000000E+00
  0.00000000E+00  0.00000000E+00  0.00000000E+00
  0.00000000E+00  0.00000000E+00  0.00000000E+00
  0.00000000E+00  0.00000000E+00  0.00000000E+00
  0.00000000E+00  0.00000000E+00  0.00000000E+00
  0.00000000E+00  0.00000000E+00  0.00000000E+00
  0.00000000E+00  0.00000000E+00  0.00000000E+00
  0.00000000E+00  0.00000000E+00  0.00000000E+00
  0.00000000E+00  0.00000000E+00  0.00000000E+00
  0.00000000E+00  0.00000000E+00  0.00000000E+00
  0.00000000E+00  0.00000000E+00  0.00000000E+00
  0.00000000E+00  0.00000000E+00  0.00000000E+00
  0.00000000E+00  0.00000000E+00  0.00000000E+00
  0.00000000E+00  0.00000000E+00  0.00000000E+00
  0.00000000E+00  0.00000000E+00  0.00000000E+00
  0.00000000E+00  0.00000000E+00  0.00000000E+00
  0.00000000E+00  0.00000000E+00  0.00000000E+00
  0.00000000E+00  0.00000000E+00  0.00000000E+00
  0.00000000E+00  0.00000000E+00  0.00000000E+00
  0.00000000E+00  0.00000000E+00  0.00000000E+00
  0.00000000E+00  0.00000000E+00  0.00000000E+00
  0.00000000E+00  0.00000000E+00  0.00000000E+00
  0.00000000E+00  0.00000000E+00  0.00000000E+00
  0.00000000E+00  0.00000000E+00  0.00000000E+00
  0.00000000E+00  0.00000000E+00  0.00000000E+00
  0.00000000E+00  0.00000000E+00  0.00000000E+00
  0.00000000E+00  0.00000000E+00  0.00000000E+00
  0.00000000E+00  0.00000000E+00  0.00000000E+00
  0.00000000E+00  0.00000000E+00  0.00000000E+00
  0.00000000E+00  0.00000000E+00  0.00000000E+00
  0.00000000E+00  0.00000000E+00  0.00000000E+00
  0.00000000E+00  0.00000000E+00  0.00000000E+00
  0.00000000E+00  0.00000000E+00  0.00000000E+00
  0.00000000E+00  0.00000000E+00  0.00000000E+00
  0.00000000E+00  0.00000000E+00  0.00000000E+00
  0.00000000E+00  0.00000000E+00  0.00000000E+00
  0.00000000E+00  0.00000000E+00  0.00000000E+00
  0.00000000E+00  0.00000000E+00  0.00000000E+00
  0.00000000E+00  0.00000000E+00  0.00000000E+00
  0.00000000E+00  0.00000000E+00  0.00000000E+00
  0.00000000E+00  0.00000000E+00  0.00000000E+00
  0.00000000E+00  0.00000000E+00  0.00000000E+00
  0.00000000E+00  0.00000000E+00  0.00000000E+00
  0.00000000E+00  0.00000000E+00  0.00000000E+00
  0.00000000E+00  0.00000000E+00  0.00000000E+00
  0.00000000E+00  0.00000000E+00  0.00000000E+00
  0.00000000E+00  0.00000000E+00  0.00000000E+00
  0.00000000E+00  0.00000000E+00  0.00000000E+00
  0.00000000E+00  0.00000000E+00  0.00000000E+00
  0.00000000E+00  0.00000000E+00  0.00000000E+00
  0.00000000E+00  0.00000000E+00  0.00000000E+00
  0.00000000E+00  0.00000000E+00  0.00000000E+00
  0.00000000E+00  0.00000000E+00  0.00000000E+00
  0.00000000E+00  0.00000000E+00  0.00000000E+00
  0.00000000E+00  0.00000000E+00  0.00000000E+00
  0.00000000E+00  0.00000000E+00  0.00000000E+00
  0.00000000E+00  0.00000000E+00  0.00000000E+00
  0.00000000E+00  0.00000000E+00  0.00000000E+00
  0.00000000E+00  0.00000000E+00  0.00000000E+00
  0.00000000E+00  0.00000000E+00  0.00000000E+00
  0.00000000E+00  0.00000000E+00  0.00000000E+00
  0.00000000E+00  0.00000000E+00  0.00000000E+00
  0.00000000E+00  0.00000000E+00  0.00000000E+00
  0.00000000E+00  0.00000000E+00  0.00000000E+00
  0.00000000E+00  0.00000000E+00  0.00000000E+00
  0.00000000E+00  0.00000000E+00  0.00000000E+00
  0.00000000E+00  0.00000000E+00  0.00000000E+00
  0.00000000E+00  0.00000000E+00  0.00000000E+00
  0.00000000E+00  0.00000000E+00  0.00000000E+00
  0.00000000E+00  0.00000000E+00  0.00000000E+00
  0.00000000E+00  0.00000000E+00  0.00000000E+00
  0.00000000E+00  0.00000000E+00  0.00000000E+00
  0.00000000E+00  0.00000000E+00  0.00000000E+00
  0.00000000E+00  0.00000000E+00  0.00000000E+00
  0.00000000E+00  0.00000000E+00  0.00000000E+00
  0.00000000E+00  0.00000000E+00  0.00000000E+00
  0.00000000E+00  0.00000000E+00  0.00000000E+00
  0.00000000E+00  0.00000000E+00  0.00000000E+00
  0.00000000E+00  0.00000000E+00  0.00000000E+00
  0.00000000E+00  0.00000000E+00  0.00000000E+00
  0.00000000E+00  0.00000000E+00  0.00000000E+00
  0.00000000E+00  0.00000000E+00  0.00000000E+00
  0.00000000E+00  0.00000000E+00  0.00000000E+00
  0.00000000E+00  0.00000000E+00  0.00000000E+00
  0.00000000E+00  0.00000000E+00  0.00000000E+00
  0.00000000E+00  0.00000000E+00  0.00000000E+00
  0.00000000E+00  0.00000000E+00  0.00000000E+00
  0.00000000E+00  0.00000000E+00  0.00000000E+00
  0.00000000E+00  0.00000000E+00  0.00000000E+00
  0.00000000E+00  0.00000000E+00  0.00000000E+00
  0.00000000E+00  0.00000000E+00  0.00000000E+00
  0.00000000E+00  0.00000000E+00  0.00000000E+00
  0.00000000E+00  0.00000000E+00  0.00000000E+00
  0.00000000E+00  0.00000000E+00  0.00000000E+00
  0.00000000E+00  0.00000000E+00  0.00000000E+00
  0.00000000E+00  0.00000000E+00  0.00000000E+00
  0.00000000E+00  0.00000000E+00  0.00000000E+00
  0.00000000E+00  0.00000000E+00  0.00000000E+00
  0.00000000E+00  0.00000000E+00  0.00000000E+00
  0.00000000E+00  0.00000000E+00  0.00000000E+00
  0.00000000E+00  0.00000000E+00  0.00000000E+00
  0.00000000E+00  0.00000000E+00  0.00000000E+00
  0.00000000E+00  0.00000000E+00  0.00000000E+00
  0.00000000E+00  0.00000000E+00  0.00000000E+00
  0.00000000E+00  0.00000000E+00  0.00000000E+00
  0.00000000E+00  0.00000000E+00  0.00000000E+00
  0.00000000E+00  0.00000000E+00  0.00000000E+00
  0.00000000E+00  0.00000000E+00  0.00000000E+00
  0.00000000E+00  0.00000000E+00  0.00000000E+00
  0.00000000E+00  0.00000000E+00  0.00000000E+00
  0.00000000E+00  0.00000000E+00  0.00000000E+00
  0.00000000E+00  0.00000000E+00  0.00000000E+00
  0.00000000E+00  0.00000000E+00  0.00000000E+00
  0.00000000E+00  0.00000000E+00  0.00000000E+00
  0.00000000E+00  0.00000000E+00  0.00000000E+00
  0.00000000E+00  0.00000000E+00  0.00000000E+00
  0.00000000E+00  0.00000000E+00  0.00000000E+00
  0.00000000E+00  0.00000000E+00  0.00000000E+00
  0.00000000E+00  0.00000000E+00  0.00000000E+00
  0.00000000E+00  0.00000000E+00  0.00000000E+00
  0.00000000E+00  0.00000000E+00  0.00000000E+00
  0.00000000E+00  0.00000000E+00  0.00000000E+00
  0.00000000E+00  0.00000000E+00  0.00000000E+00
  0.00000000E+00  0.00000000E+00  0.00000000E+00
  0.00000000E+00  0.00000000E+00  0.00000000E+00
  0.00000000E+00  0.00000000E+00  0.00000000E+00
  0.00000000E+00  0.00000000E+00  0.00000000E+00
  0.00000000E+00  0.00000000E+00  0.00000000E+00
  0.00000000E+00  0.00000000E+00  0.00000000E+00
  0.00000000E+00  0.00000000E+00  0.00000000E+00
  0.00000000E+00  0.00000000E+00  0.00000000E+00
  0.00000000E+00  0.00000000E+00  0.00000000E+00
  0.00000000E+00  0.00000000E+00  0.00000000E+00
  0.00000000E+00  0.00000000E+00  0.00000000E+00
  0.00000000E+00  0.00000000E+00  0.00000000E+00
  0.00000000E+00  0.00000000E+00  0.00000000E+00
  0.00000000E+00  0.00000000E+00  0.00000000E+00
  0.00000000E+00  0.00000000E+00  0.00000000E+00
  0.00000000E+00  0.00000000E+00  0.00000000E+00
  0.00000000E+00  0.00000000E+00  0.00000000E+00
  0.00000000E+00  0.00000000E+00  0.00000000E+00
  0.00000000E+00  0.00000000E+00  0.00000000E+00
  0.00000000E+00  0.00000000E+00  0.00000000E+00
  0.00000000E+00  0.00000000E+00  0.00000000E+00
  0.00000000E+00  0.00000000E+00  0.00000000E+00
  0.00000000E+00  0.00000000E+00  0.00000000E+00
  0.00000000E+00  0.00000000E+00  0.00000000E+00
  0.00000000E+00  0.00000000E+00  0.00000000E+00
  0.00000000E+00  0.00000000E+00  0.00000000E+00
  0.00000000E+00  0.00000000E+00  0.00000000E+00
  0.00000000E+00  0.00000000E+00  0.00000000E+00
  0.00000000E+00  0.00000000E+00  0.00000000E+00
  0.00000000E+00  0.00000000E+00  0.00000000E+00
  0.00000000E+00  0.00000000E+00  0.00000000E+00
  0.00000000E+00  0.00000000E+00  0.00000000E+00
  0.00000000E+00  0.00000000E+00  0.00000000E+00
  0.00000000E+00  0.00000000E+00  0.00000000E+00
  0.00000000E+00  0.00000000E+00  0.00000000E+00
  0.00000000E+00  0.00000000E+00  0.00000000E+00
  0.00000000E+00  0.00000000E+00  0.00000000E+00
  0.00000000E+00  0.00000000E+00  0.00000000E+00
  0.00000000E+00  0.00000000E+00  0.00000000E+00
  0.00000000E+00  0.00000000E+00  0.00000000E+00
  0.00000000E+00  0.00000000E+00  0.00000000E+00
  0.00000000E+00  0.00000000E+00  0.00000000E+00
  0.00000000E+00  0.00000000E+00  0.00000000E+00
  0.00000000E+00  0.00000000E+00  0.00000000E+00
  0.00000000E+00  0.00000000E+00  0.00000000E+00
  0.00000000E+00  0.00000000E+00  0.00000000E+00
  0.00000000E+00  0.00000000E+00  0.00000000E+00
  0.00000000E+00  0.00000000E+00  0.00000000E+00
  0.00000000E+00  0.00000000E+00  0.00000000E+00
  0.00000000E+00  0.00000000E+00  0.00000000E+00
  0.00000000E+00  0.00000000E+00  0.00000000E+00
  0.00000000E+00  0.00000000E+00  0.00000000E+00
  0.00000000E+00  0.00000000E+00  0.00000000E+00
  0.00000000E+00  0.00000000E+00  0.00000000E+00
  0.00000000E+00  0.00000000E+00  0.00000000E+00
  0.00000000E+00  0.00000000E+00  0.00000000E+00
  0.00000000E+00  0.00000000E+00  0.00000000E+00
  0.00000000E+00  0.00000000E+00  0.00000000E+00
  0.00000000E+00  0.00000000E+00  0.00000000E+00
  0.00000000E+00  0.00000000E+00  0.00000000E+00
  0.00000000E+00  0.00000000E+00  0.00000000E+00
  0.00000000E+00  0.00000000E+00  0.00000000E+00
  0.00000000E+00  0.00000000E+00  0.00000000E+00
  0.00000000E+00  0.00000000E+00  0.00000000E+00
  0.00000000E+00  0.00000000E+00  0.00000000E+00
  0.00000000E+00  0.00000000E+00  0.00000000E+00
  0.00000000E+00  0.00000000E+00  0.00000000E+00
  0.00000000E+00  0.00000000E+00  0.00000000E+00
  0.00000000E+00  0.00000000E+00  0.00000000E+00
  0.00000000E+00  0.00000000E+00  0.00000000E+00
  0.00000000E+00  0.00000000E+00  0.00000000E+00
  0.00000000E+00  0.00000000E+00  0.00000000E+00
  0.00000000E+00  0.00000000E+00  0.00000000E+00
  0.00000000E+00  0.00000000E+00  0.00000000E+00
  0.00000000E+00  0.00000000E+00  0.00000000E+00
  0.00000000E+00  0.00000000E+00  0.00000000E+00
  0.00000000E+00  0.00000000E+00  0.00000000E+00
  0.00000000E+00  0.00000000E+00  0.00000000E+00
  0.00000000E+00  0.00000000E+00  0.00000000E+00
  0.00000000E+00  0.00000000E+00  0.00000000E+00
  0.00000000E+00  0.00000000E+00  0.00000000E+00
  0.00000000E+00  0.00000000E+00  0.00000000E+00
  0.00000000E+00  0.00000000E+00  0.00000000E+00
  0.00000000E+00  0.00000000E+00  0.00000000E+00
  0.00000000E+00  0.00000000E+00  0.00000000E+00
  0.00000000E+00  0.00000000E+00  0.00000000E+00
