SYSTEM=TiO2-rutile
ISMEAR=0
SIGMA=0.05
EDIFF=1E-5
ALGO=Fast

ISTART=1

ISYM=0


IBRION = -1
NSW = 0
EDIFFG=-0.01

#IBRION=1
#EDIFFG=-0.01
#NSW=250

ENCUT=500
PREC=Accurate  #default (Normal) usually safe, structures/energies change little with Accurate
LASPH=.TRUE.
LREAL=Auto
ISPIN=1
NELM=500
NELMIN=4

NCORE=20

#NPAR=2
LWAVE=.TRUE.
LCHARG=.TRUE.
LPARD=.TRUE.
IBAND=765
LSEPK=.TRUE.


#LVHAR=.TRUE.
#LVTOT=.TRUE.


LORBIT=11
#NEDOS=1001

