Ti  O                                   
   1.00000000000000     
    12.8810259953660466    0.0000000000000000    0.0000000000000000
     0.0000000000000000   11.6899362151574362    0.0000000000000000
     0.0000000000000000    0.0000000000000000   12.8810259953660466
   Ti   O 
    64   127
Direct
  0.2500000000000000  0.1250000000000000  0.1097904439352746
  0.0000000000000000  0.0000000000000000  0.1097904439352746
  0.5000000000000000  0.1250000000000000  0.3597904439352746
  0.2500000000000000  0.0000000000000000  0.3597904439352746
  0.2500000000000000  0.1250000000000000  0.6097904439352746
  0.0000000000000000  0.0000000000000000  0.6097904439352746
  0.5000000000000000  0.1250000000000000  0.8597904439352746
  0.2500000000000000  0.0000000000000000  0.8597904439352746
  0.2500000000000000  0.3750000000000000  0.1097904439352746
  0.0000000000000000  0.2500000000000000  0.1097904439352746
  0.5000000000000000  0.3750000000000000  0.3597904439352746
  0.2500000000000000  0.2500000000000000  0.3597904439352746
  0.2500000000000000  0.3750000000000000  0.6097904439352746
  0.0000000000000000  0.2500000000000000  0.6097904439352746
  0.5000000000000000  0.3750000000000000  0.8597904439352746
  0.2500000000000000  0.2500000000000000  0.8597904439352746
  0.2500000000000000  0.6250000000000000  0.1097904439352746
  0.0000000000000000  0.5000000000000000  0.1097904439352746
  0.5000000000000000  0.6250000000000000  0.3597904439352746
  0.2500000000000000  0.5000000000000000  0.3597904439352746
  0.2500000000000000  0.6250000000000000  0.6097904439352746
  0.0000000000000000  0.5000000000000000  0.6097904439352746
  0.5000000000000000  0.6250000000000000  0.8597904439352746
  0.2500000000000000  0.5000000000000000  0.8597904439352746
  0.2500000000000000  0.8750000000000000  0.1097904439352746
  0.0000000000000000  0.7500000000000000  0.1097904439352746
  0.5000000000000000  0.8750000000000000  0.3597904439352746
  0.2500000000000000  0.7500000000000000  0.3597904439352746
  0.2500000000000000  0.8750000000000000  0.6097904439352746
  0.0000000000000000  0.7500000000000000  0.6097904439352746
  0.5000000000000000  0.8750000000000000  0.8597904439352746
  0.2500000000000000  0.7500000000000000  0.8597904439352746
  0.7500000000000000  0.1250000000000000  0.1097904439352746
  0.5000000000000000  0.0000000000000000  0.1097904439352746
  0.0000000000000000  0.1250000000000000  0.3597904439352746
  0.7500000000000000  0.0000000000000000  0.3597904439352746
  0.7500000000000000  0.1250000000000000  0.6097904439352746
  0.5000000000000000  0.0000000000000000  0.6097904439352746
  0.0000000000000000  0.1250000000000000  0.8597904439352746
  0.7500000000000000  0.0000000000000000  0.8597904439352746
  0.7500000000000000  0.3750000000000000  0.1097904439352746
  0.5000000000000000  0.2500000000000000  0.1097904439352746
  0.0000000000000000  0.3750000000000000  0.3597904439352746
  0.7500000000000000  0.2500000000000000  0.3597904439352746
  0.7500000000000000  0.3750000000000000  0.6097904439352746
  0.5000000000000000  0.2500000000000000  0.6097904439352746
  0.0000000000000000  0.3750000000000000  0.8597904439352746
  0.7500000000000000  0.2500000000000000  0.8597904439352746
  0.7500000000000000  0.6250000000000000  0.1097904439352746
  0.5000000000000000  0.5000000000000000  0.1097904439352746
  0.0000000000000000  0.6250000000000000  0.3597904439352746
  0.7500000000000000  0.5000000000000000  0.3597904439352746
  0.7500000000000000  0.6250000000000000  0.6097904439352746
  0.5000000000000000  0.5000000000000000  0.6097904439352746
  0.0000000000000000  0.6250000000000000  0.8597904439352746
  0.7500000000000000  0.5000000000000000  0.8597904439352746
  0.7500000000000000  0.8750000000000000  0.1097904439352746
  0.5000000000000000  0.7500000000000000  0.1097904439352746
  0.0000000000000000  0.8750000000000000  0.3597904439352746
  0.7500000000000000  0.7500000000000000  0.3597904439352746
  0.7500000000000000  0.8750000000000000  0.6097904439352746
  0.5000000000000000  0.7500000000000000  0.6097904439352746
  0.0000000000000000  0.8750000000000000  0.8597904439352746
  0.7500000000000000  0.7500000000000000  0.8597904439352746
  0.0980710572760373  0.1250000000000000  0.1097904439352746
  0.4019289427239556  0.1250000000000000  0.1097904439352746
  0.2500000000000000  0.0000000000000000  0.0117193866592373
  0.2500000000000000  0.0000000000000000  0.2078615012113190
  0.3480710572760444  0.1250000000000000  0.3597904439352746
  0.1519289427239627  0.1250000000000000  0.3597904439352746
  0.0000000000000000  0.0000000000000000  0.2617193866592373
  0.5000000000000000  0.0000000000000000  0.4578615012113190
  0.0980710572760373  0.1250000000000000  0.6097904439352746
  0.4019289427239556  0.1250000000000000  0.6097904439352746
  0.2500000000000000  0.0000000000000000  0.5117193866592373
  0.2500000000000000  0.0000000000000000  0.7078615012113190
  0.3480710572760444  0.1250000000000000  0.8597904439352746
  0.1519289427239627  0.1250000000000000  0.8597904439352746
  0.0000000000000000  0.0000000000000000  0.7617193866592373
  0.5000000000000000  0.0000000000000000  0.9578615012113190
  0.0980710572760373  0.3750000000000000  0.1097904439352746
  0.4019289427239556  0.3750000000000000  0.1097904439352746
  0.2500000000000000  0.2500000000000000  0.0117193866592373
  0.2500000000000000  0.2500000000000000  0.2078615012113190
  0.3480710572760444  0.3750000000000000  0.3597904439352746
  0.1519289427239627  0.3750000000000000  0.3597904439352746
  0.0000000000000000  0.2500000000000000  0.2617193866592373
  0.5000000000000000  0.2500000000000000  0.4578615012113190
  0.0980710572760373  0.3750000000000000  0.6097904439352746
  0.4019289427239556  0.3750000000000000  0.6097904439352746
  0.2500000000000000  0.2500000000000000  0.5117193866592373
  0.2500000000000000  0.2500000000000000  0.7078615012113190
  0.3480710572760444  0.3750000000000000  0.8597904439352746
  0.1519289427239627  0.3750000000000000  0.8597904439352746
  0.0000000000000000  0.2500000000000000  0.7617193866592373
  0.5000000000000000  0.2500000000000000  0.9578615012113190
  0.0980710572760373  0.6250000000000000  0.1097904439352746
  0.4019289427239556  0.6250000000000000  0.1097904439352746
  0.2500000000000000  0.5000000000000000  0.0117193866592373
  0.2500000000000000  0.5000000000000000  0.2078615012113190
  0.3480710572760444  0.6250000000000000  0.3597904439352746
  0.1519289427239627  0.6250000000000000  0.3597904439352746
  0.0000000000000000  0.5000000000000000  0.2617193866592373
  0.0980710572760373  0.6250000000000000  0.6097904439352746
  0.4019289427239556  0.6250000000000000  0.6097904439352746
  0.2500000000000000  0.5000000000000000  0.5117193866592373
  0.2500000000000000  0.5000000000000000  0.7078615012113190
  0.3480710572760444  0.6250000000000000  0.8597904439352746
  0.1519289427239627  0.6250000000000000  0.8597904439352746
  0.0000000000000000  0.5000000000000000  0.7617193866592373
  0.5000000000000000  0.5000000000000000  0.9578615012113190
  0.0980710572760373  0.8750000000000000  0.1097904439352746
  0.4019289427239556  0.8750000000000000  0.1097904439352746
  0.2500000000000000  0.7500000000000000  0.0117193866592373
  0.2500000000000000  0.7500000000000000  0.2078615012113190
  0.3480710572760444  0.8750000000000000  0.3597904439352746
  0.1519289427239627  0.8750000000000000  0.3597904439352746
  0.0000000000000000  0.7500000000000000  0.2617193866592373
  0.5000000000000000  0.7500000000000000  0.4578615012113190
  0.0980710572760373  0.8750000000000000  0.6097904439352746
  0.4019289427239556  0.8750000000000000  0.6097904439352746
  0.2500000000000000  0.7500000000000000  0.5117193866592373
  0.2500000000000000  0.7500000000000000  0.7078615012113190
  0.3480710572760444  0.8750000000000000  0.8597904439352746
  0.1519289427239627  0.8750000000000000  0.8597904439352746
  0.0000000000000000  0.7500000000000000  0.7617193866592373
  0.5000000000000000  0.7500000000000000  0.9578615012113190
  0.5980710572760444  0.1250000000000000  0.1097904439352746
  0.9019289427239627  0.1250000000000000  0.1097904439352746
  0.7500000000000000  0.0000000000000000  0.0117193866592373
  0.7500000000000000  0.0000000000000000  0.2078615012113190
  0.8480710572760444  0.1250000000000000  0.3597904439352746
  0.6519289427239627  0.1250000000000000  0.3597904439352746
  0.5000000000000000  0.0000000000000000  0.2617193866592373
  0.0000000000000000  0.0000000000000000  0.4578615012113190
  0.5980710572760444  0.1250000000000000  0.6097904439352746
  0.9019289427239627  0.1250000000000000  0.6097904439352746
  0.7500000000000000  0.0000000000000000  0.5117193866592373
  0.7500000000000000  0.0000000000000000  0.7078615012113190
  0.8480710572760444  0.1250000000000000  0.8597904439352746
  0.6519289427239627  0.1250000000000000  0.8597904439352746
  0.5000000000000000  0.0000000000000000  0.7617193866592373
  0.0000000000000000  0.0000000000000000  0.9578615012113190
  0.5980710572760444  0.3750000000000000  0.1097904439352746
  0.9019289427239627  0.3750000000000000  0.1097904439352746
  0.7500000000000000  0.2500000000000000  0.0117193866592373
  0.7500000000000000  0.2500000000000000  0.2078615012113190
  0.8480710572760444  0.3750000000000000  0.3597904439352746
  0.6519289427239627  0.3750000000000000  0.3597904439352746
  0.5000000000000000  0.2500000000000000  0.2617193866592373
  0.0000000000000000  0.2500000000000000  0.4578615012113190
  0.5980710572760444  0.3750000000000000  0.6097904439352746
  0.9019289427239627  0.3750000000000000  0.6097904439352746
  0.7500000000000000  0.2500000000000000  0.5117193866592373
  0.7500000000000000  0.2500000000000000  0.7078615012113190
  0.8480710572760444  0.3750000000000000  0.8597904439352746
  0.6519289427239627  0.3750000000000000  0.8597904439352746
  0.5000000000000000  0.2500000000000000  0.7617193866592373
  0.0000000000000000  0.2500000000000000  0.9578615012113190
  0.5980710572760444  0.6250000000000000  0.1097904439352746
  0.9019289427239627  0.6250000000000000  0.1097904439352746
  0.7500000000000000  0.5000000000000000  0.0117193866592373
  0.7500000000000000  0.5000000000000000  0.2078615012113190
  0.8480710572760444  0.6250000000000000  0.3597904439352746
  0.6519289427239627  0.6250000000000000  0.3597904439352746
  0.5000000000000000  0.5000000000000000  0.2617193866592373
  0.0000000000000000  0.5000000000000000  0.4578615012113190
  0.5980710572760444  0.6250000000000000  0.6097904439352746
  0.9019289427239627  0.6250000000000000  0.6097904439352746
  0.7500000000000000  0.5000000000000000  0.5117193866592373
  0.7500000000000000  0.5000000000000000  0.7078615012113190
  0.8480710572760444  0.6250000000000000  0.8597904439352746
  0.6519289427239627  0.6250000000000000  0.8597904439352746
  0.5000000000000000  0.5000000000000000  0.7617193866592373
  0.0000000000000000  0.5000000000000000  0.9578615012113190
  0.5980710572760444  0.8750000000000000  0.1097904439352746
  0.9019289427239627  0.8750000000000000  0.1097904439352746
  0.7500000000000000  0.7500000000000000  0.0117193866592373
  0.7500000000000000  0.7500000000000000  0.2078615012113190
  0.8480710572760444  0.8750000000000000  0.3597904439352746
  0.6519289427239627  0.8750000000000000  0.3597904439352746
  0.5000000000000000  0.7500000000000000  0.2617193866592373
  0.0000000000000000  0.7500000000000000  0.4578615012113190
  0.5980710572760444  0.8750000000000000  0.6097904439352746
  0.9019289427239627  0.8750000000000000  0.6097904439352746
  0.7500000000000000  0.7500000000000000  0.5117193866592373
  0.7500000000000000  0.7500000000000000  0.7078615012113190
  0.8480710572760444  0.8750000000000000  0.8597904439352746
  0.6519289427239627  0.8750000000000000  0.8597904439352746
  0.5000000000000000  0.7500000000000000  0.7617193866592373
  0.0000000000000000  0.7500000000000000  0.9578615012113190
 
  0.00000000E+00  0.00000000E+00  0.00000000E+00
  0.00000000E+00  0.00000000E+00  0.00000000E+00
  0.00000000E+00  0.00000000E+00  0.00000000E+00
  0.00000000E+00  0.00000000E+00  0.00000000E+00
  0.00000000E+00  0.00000000E+00  0.00000000E+00
  0.00000000E+00  0.00000000E+00  0.00000000E+00
  0.00000000E+00  0.00000000E+00  0.00000000E+00
  0.00000000E+00  0.00000000E+00  0.00000000E+00
  0.00000000E+00  0.00000000E+00  0.00000000E+00
  0.00000000E+00  0.00000000E+00  0.00000000E+00
  0.00000000E+00  0.00000000E+00  0.00000000E+00
  0.00000000E+00  0.00000000E+00  0.00000000E+00
  0.00000000E+00  0.00000000E+00  0.00000000E+00
  0.00000000E+00  0.00000000E+00  0.00000000E+00
  0.00000000E+00  0.00000000E+00  0.00000000E+00
  0.00000000E+00  0.00000000E+00  0.00000000E+00
  0.00000000E+00  0.00000000E+00  0.00000000E+00
  0.00000000E+00  0.00000000E+00  0.00000000E+00
  0.00000000E+00  0.00000000E+00  0.00000000E+00
  0.00000000E+00  0.00000000E+00  0.00000000E+00
  0.00000000E+00  0.00000000E+00  0.00000000E+00
  0.00000000E+00  0.00000000E+00  0.00000000E+00
  0.00000000E+00  0.00000000E+00  0.00000000E+00
  0.00000000E+00  0.00000000E+00  0.00000000E+00
  0.00000000E+00  0.00000000E+00  0.00000000E+00
  0.00000000E+00  0.00000000E+00  0.00000000E+00
  0.00000000E+00  0.00000000E+00  0.00000000E+00
  0.00000000E+00  0.00000000E+00  0.00000000E+00
  0.00000000E+00  0.00000000E+00  0.00000000E+00
  0.00000000E+00  0.00000000E+00  0.00000000E+00
  0.00000000E+00  0.00000000E+00  0.00000000E+00
  0.00000000E+00  0.00000000E+00  0.00000000E+00
  0.00000000E+00  0.00000000E+00  0.00000000E+00
  0.00000000E+00  0.00000000E+00  0.00000000E+00
  0.00000000E+00  0.00000000E+00  0.00000000E+00
  0.00000000E+00  0.00000000E+00  0.00000000E+00
  0.00000000E+00  0.00000000E+00  0.00000000E+00
  0.00000000E+00  0.00000000E+00  0.00000000E+00
  0.00000000E+00  0.00000000E+00  0.00000000E+00
  0.00000000E+00  0.00000000E+00  0.00000000E+00
  0.00000000E+00  0.00000000E+00  0.00000000E+00
  0.00000000E+00  0.00000000E+00  0.00000000E+00
  0.00000000E+00  0.00000000E+00  0.00000000E+00
  0.00000000E+00  0.00000000E+00  0.00000000E+00
  0.00000000E+00  0.00000000E+00  0.00000000E+00
  0.00000000E+00  0.00000000E+00  0.00000000E+00
  0.00000000E+00  0.00000000E+00  0.00000000E+00
  0.00000000E+00  0.00000000E+00  0.00000000E+00
  0.00000000E+00  0.00000000E+00  0.00000000E+00
  0.00000000E+00  0.00000000E+00  0.00000000E+00
  0.00000000E+00  0.00000000E+00  0.00000000E+00
  0.00000000E+00  0.00000000E+00  0.00000000E+00
  0.00000000E+00  0.00000000E+00  0.00000000E+00
  0.00000000E+00  0.00000000E+00  0.00000000E+00
  0.00000000E+00  0.00000000E+00  0.00000000E+00
  0.00000000E+00  0.00000000E+00  0.00000000E+00
  0.00000000E+00  0.00000000E+00  0.00000000E+00
  0.00000000E+00  0.00000000E+00  0.00000000E+00
  0.00000000E+00  0.00000000E+00  0.00000000E+00
  0.00000000E+00  0.00000000E+00  0.00000000E+00
  0.00000000E+00  0.00000000E+00  0.00000000E+00
  0.00000000E+00  0.00000000E+00  0.00000000E+00
  0.00000000E+00  0.00000000E+00  0.00000000E+00
  0.00000000E+00  0.00000000E+00  0.00000000E+00
  0.00000000E+00  0.00000000E+00  0.00000000E+00
  0.00000000E+00  0.00000000E+00  0.00000000E+00
  0.00000000E+00  0.00000000E+00  0.00000000E+00
  0.00000000E+00  0.00000000E+00  0.00000000E+00
  0.00000000E+00  0.00000000E+00  0.00000000E+00
  0.00000000E+00  0.00000000E+00  0.00000000E+00
  0.00000000E+00  0.00000000E+00  0.00000000E+00
  0.00000000E+00  0.00000000E+00  0.00000000E+00
  0.00000000E+00  0.00000000E+00  0.00000000E+00
  0.00000000E+00  0.00000000E+00  0.00000000E+00
  0.00000000E+00  0.00000000E+00  0.00000000E+00
  0.00000000E+00  0.00000000E+00  0.00000000E+00
  0.00000000E+00  0.00000000E+00  0.00000000E+00
  0.00000000E+00  0.00000000E+00  0.00000000E+00
  0.00000000E+00  0.00000000E+00  0.00000000E+00
  0.00000000E+00  0.00000000E+00  0.00000000E+00
  0.00000000E+00  0.00000000E+00  0.00000000E+00
  0.00000000E+00  0.00000000E+00  0.00000000E+00
  0.00000000E+00  0.00000000E+00  0.00000000E+00
  0.00000000E+00  0.00000000E+00  0.00000000E+00
  0.00000000E+00  0.00000000E+00  0.00000000E+00
  0.00000000E+00  0.00000000E+00  0.00000000E+00
  0.00000000E+00  0.00000000E+00  0.00000000E+00
  0.00000000E+00  0.00000000E+00  0.00000000E+00
  0.00000000E+00  0.00000000E+00  0.00000000E+00
  0.00000000E+00  0.00000000E+00  0.00000000E+00
  0.00000000E+00  0.00000000E+00  0.00000000E+00
  0.00000000E+00  0.00000000E+00  0.00000000E+00
  0.00000000E+00  0.00000000E+00  0.00000000E+00
  0.00000000E+00  0.00000000E+00  0.00000000E+00
  0.00000000E+00  0.00000000E+00  0.00000000E+00
  0.00000000E+00  0.00000000E+00  0.00000000E+00
  0.00000000E+00  0.00000000E+00  0.00000000E+00
  0.00000000E+00  0.00000000E+00  0.00000000E+00
  0.00000000E+00  0.00000000E+00  0.00000000E+00
  0.00000000E+00  0.00000000E+00  0.00000000E+00
  0.00000000E+00  0.00000000E+00  0.00000000E+00
  0.00000000E+00  0.00000000E+00  0.00000000E+00
  0.00000000E+00  0.00000000E+00  0.00000000E+00
  0.00000000E+00  0.00000000E+00  0.00000000E+00
  0.00000000E+00  0.00000000E+00  0.00000000E+00
  0.00000000E+00  0.00000000E+00  0.00000000E+00
  0.00000000E+00  0.00000000E+00  0.00000000E+00
  0.00000000E+00  0.00000000E+00  0.00000000E+00
  0.00000000E+00  0.00000000E+00  0.00000000E+00
  0.00000000E+00  0.00000000E+00  0.00000000E+00
  0.00000000E+00  0.00000000E+00  0.00000000E+00
  0.00000000E+00  0.00000000E+00  0.00000000E+00
  0.00000000E+00  0.00000000E+00  0.00000000E+00
  0.00000000E+00  0.00000000E+00  0.00000000E+00
  0.00000000E+00  0.00000000E+00  0.00000000E+00
  0.00000000E+00  0.00000000E+00  0.00000000E+00
  0.00000000E+00  0.00000000E+00  0.00000000E+00
  0.00000000E+00  0.00000000E+00  0.00000000E+00
  0.00000000E+00  0.00000000E+00  0.00000000E+00
  0.00000000E+00  0.00000000E+00  0.00000000E+00
  0.00000000E+00  0.00000000E+00  0.00000000E+00
  0.00000000E+00  0.00000000E+00  0.00000000E+00
  0.00000000E+00  0.00000000E+00  0.00000000E+00
  0.00000000E+00  0.00000000E+00  0.00000000E+00
  0.00000000E+00  0.00000000E+00  0.00000000E+00
  0.00000000E+00  0.00000000E+00  0.00000000E+00
  0.00000000E+00  0.00000000E+00  0.00000000E+00
  0.00000000E+00  0.00000000E+00  0.00000000E+00
  0.00000000E+00  0.00000000E+00  0.00000000E+00
  0.00000000E+00  0.00000000E+00  0.00000000E+00
  0.00000000E+00  0.00000000E+00  0.00000000E+00
  0.00000000E+00  0.00000000E+00  0.00000000E+00
  0.00000000E+00  0.00000000E+00  0.00000000E+00
  0.00000000E+00  0.00000000E+00  0.00000000E+00
  0.00000000E+00  0.00000000E+00  0.00000000E+00
  0.00000000E+00  0.00000000E+00  0.00000000E+00
  0.00000000E+00  0.00000000E+00  0.00000000E+00
  0.00000000E+00  0.00000000E+00  0.00000000E+00
  0.00000000E+00  0.00000000E+00  0.00000000E+00
  0.00000000E+00  0.00000000E+00  0.00000000E+00
  0.00000000E+00  0.00000000E+00  0.00000000E+00
  0.00000000E+00  0.00000000E+00  0.00000000E+00
  0.00000000E+00  0.00000000E+00  0.00000000E+00
  0.00000000E+00  0.00000000E+00  0.00000000E+00
  0.00000000E+00  0.00000000E+00  0.00000000E+00
  0.00000000E+00  0.00000000E+00  0.00000000E+00
  0.00000000E+00  0.00000000E+00  0.00000000E+00
  0.00000000E+00  0.00000000E+00  0.00000000E+00
  0.00000000E+00  0.00000000E+00  0.00000000E+00
  0.00000000E+00  0.00000000E+00  0.00000000E+00
  0.00000000E+00  0.00000000E+00  0.00000000E+00
  0.00000000E+00  0.00000000E+00  0.00000000E+00
  0.00000000E+00  0.00000000E+00  0.00000000E+00
  0.00000000E+00  0.00000000E+00  0.00000000E+00
  0.00000000E+00  0.00000000E+00  0.00000000E+00
  0.00000000E+00  0.00000000E+00  0.00000000E+00
  0.00000000E+00  0.00000000E+00  0.00000000E+00
  0.00000000E+00  0.00000000E+00  0.00000000E+00
  0.00000000E+00  0.00000000E+00  0.00000000E+00
  0.00000000E+00  0.00000000E+00  0.00000000E+00
  0.00000000E+00  0.00000000E+00  0.00000000E+00
  0.00000000E+00  0.00000000E+00  0.00000000E+00
  0.00000000E+00  0.00000000E+00  0.00000000E+00
  0.00000000E+00  0.00000000E+00  0.00000000E+00
  0.00000000E+00  0.00000000E+00  0.00000000E+00
  0.00000000E+00  0.00000000E+00  0.00000000E+00
  0.00000000E+00  0.00000000E+00  0.00000000E+00
  0.00000000E+00  0.00000000E+00  0.00000000E+00
  0.00000000E+00  0.00000000E+00  0.00000000E+00
  0.00000000E+00  0.00000000E+00  0.00000000E+00
  0.00000000E+00  0.00000000E+00  0.00000000E+00
  0.00000000E+00  0.00000000E+00  0.00000000E+00
  0.00000000E+00  0.00000000E+00  0.00000000E+00
  0.00000000E+00  0.00000000E+00  0.00000000E+00
  0.00000000E+00  0.00000000E+00  0.00000000E+00
  0.00000000E+00  0.00000000E+00  0.00000000E+00
  0.00000000E+00  0.00000000E+00  0.00000000E+00
  0.00000000E+00  0.00000000E+00  0.00000000E+00
  0.00000000E+00  0.00000000E+00  0.00000000E+00
  0.00000000E+00  0.00000000E+00  0.00000000E+00
  0.00000000E+00  0.00000000E+00  0.00000000E+00
  0.00000000E+00  0.00000000E+00  0.00000000E+00
  0.00000000E+00  0.00000000E+00  0.00000000E+00
  0.00000000E+00  0.00000000E+00  0.00000000E+00
  0.00000000E+00  0.00000000E+00  0.00000000E+00
  0.00000000E+00  0.00000000E+00  0.00000000E+00
  0.00000000E+00  0.00000000E+00  0.00000000E+00
  0.00000000E+00  0.00000000E+00  0.00000000E+00
  0.00000000E+00  0.00000000E+00  0.00000000E+00
  0.00000000E+00  0.00000000E+00  0.00000000E+00
  0.00000000E+00  0.00000000E+00  0.00000000E+00
