 O Ti 
 1.0000000000000000
    13.0160748915413169    0.0000000000000000    0.0000000000000000
     0.0000000000000000   11.8443707738385253    0.0000000000000000
     0.0000000000000000    0.0000000000000000   13.0160748915413151
   O  Ti
 127  64
Direct
  0.8045353797002406  0.4999999999999999  0.0000000000000001
  0.6522676898501203  0.3750000000000000  0.4022676898501203
  0.6522676898501203  0.3750000000000000  0.0977323101498799
  0.7500000000000002  0.4999999999999999  0.2500000000000001
  0.5545353797002407  0.4999999999999999  0.2500000000000001
  0.4022676898501203  0.3750000000000000  0.1522676898501204
  0.4022676898501203  0.3750000000000000  0.3477323101498799
  0.4999999999999999  0.4999999999999999  0.0000000000000001
  0.8045353797002406  0.4999999999999999  0.5000000000000002
  0.6522676898501203  0.3750000000000000  0.9022676898501204
  0.6522676898501203  0.3750000000000000  0.5977323101498799
  0.7500000000000002  0.4999999999999999  0.7500000000000003
  0.5545353797002407  0.4999999999999999  0.7500000000000003
  0.4022676898501203  0.3750000000000000  0.6522676898501204
  0.4022676898501203  0.3750000000000000  0.8477323101498802
  0.4999999999999999  0.7500000000000000  0.4999999999999999
  0.8045353797002406  0.7500000000000000  0.0000000000000001
  0.6522676898501203  0.6250000000000000  0.4022676898501203
  0.6522676898501203  0.6250000000000000  0.0977323101498799
  0.7500000000000002  0.7500000000000000  0.2500000000000001
  0.5545353797002407  0.7500000000000000  0.2500000000000001
  0.4022676898501203  0.6250000000000000  0.1522676898501204
  0.4022676898501203  0.6250000000000000  0.3477323101498799
  0.4999999999999999  0.7500000000000000  0.0000000000000001
  0.8045353797002406  0.7500000000000000  0.5000000000000002
  0.6522676898501203  0.6250000000000000  0.9022676898501204
  0.6522676898501203  0.6250000000000000  0.5977323101498799
  0.7500000000000002  0.7500000000000000  0.7500000000000003
  0.5545353797002407  0.7500000000000000  0.7500000000000003
  0.4022676898501203  0.6250000000000000  0.6522676898501204
  0.4022676898501203  0.6250000000000000  0.8477323101498802
  0.4999999999999999  0.0000000000000001  0.4999999999999999
  0.8045353797002406  0.0000000000000001  0.0000000000000001
  0.6522676898501203  0.8750000000000001  0.4022676898501203
  0.6522676898501203  0.8750000000000001  0.0977323101498799
  0.7500000000000002  0.0000000000000001  0.2500000000000001
  0.5545353797002407  0.0000000000000001  0.2500000000000001
  0.4022676898501203  0.8750000000000001  0.1522676898501204
  0.4022676898501203  0.8750000000000001  0.3477323101498799
  0.4999999999999999  0.0000000000000001  0.0000000000000001
  0.8045353797002406  0.0000000000000001  0.5000000000000002
  0.6522676898501203  0.8750000000000001  0.9022676898501204
  0.6522676898501203  0.8750000000000001  0.5977323101498799
  0.7500000000000002  0.0000000000000001  0.7500000000000003
  0.5545353797002407  0.0000000000000001  0.7500000000000003
  0.4022676898501203  0.8750000000000001  0.6522676898501204
  0.4022676898501203  0.8750000000000001  0.8477323101498802
  0.4999999999999999  0.2500000000000001  0.4999999999999999
  0.8045353797002406  0.2500000000000001  0.0000000000000001
  0.6522676898501203  0.1250000000000001  0.4022676898501203
  0.6522676898501203  0.1250000000000001  0.0977323101498799
  0.7500000000000002  0.2500000000000001  0.2500000000000001
  0.5545353797002407  0.2500000000000001  0.2500000000000001
  0.4022676898501203  0.1250000000000001  0.1522676898501204
  0.4022676898501203  0.1250000000000001  0.3477323101498799
  0.4999999999999999  0.2500000000000001  0.0000000000000001
  0.8045353797002406  0.2500000000000001  0.5000000000000002
  0.6522676898501203  0.1250000000000001  0.9022676898501204
  0.6522676898501203  0.1250000000000001  0.5977323101498799
  0.7500000000000002  0.2500000000000001  0.7500000000000003
  0.5545353797002407  0.2500000000000001  0.7500000000000003
  0.4022676898501203  0.1250000000000001  0.6522676898501204
  0.4022676898501203  0.1250000000000001  0.8477323101498802
  0.0000000000000001  0.4999999999999999  0.4999999999999999
  0.3045353797002406  0.4999999999999999  0.0000000000000001
  0.1522676898501203  0.3750000000000000  0.4022676898501203
  0.1522676898501203  0.3750000000000000  0.0977323101498799
  0.2500000000000001  0.4999999999999999  0.2500000000000001
  0.0545353797002409  0.4999999999999999  0.2500000000000001
  0.9022676898501204  0.3750000000000000  0.1522676898501204
  0.9022676898501204  0.3750000000000000  0.3477323101498799
  0.0000000000000001  0.4999999999999999  0.0000000000000001
  0.3045353797002406  0.4999999999999999  0.5000000000000002
  0.1522676898501203  0.3750000000000000  0.9022676898501204
  0.1522676898501203  0.3750000000000000  0.5977323101498799
  0.2500000000000001  0.4999999999999999  0.7500000000000003
  0.0545353797002409  0.4999999999999999  0.7500000000000003
  0.9022676898501204  0.3750000000000000  0.6522676898501204
  0.9022676898501204  0.3750000000000000  0.8477323101498802
  0.0000000000000001  0.7500000000000000  0.4999999999999999
  0.3045353797002406  0.7500000000000000  0.0000000000000001
  0.1522676898501203  0.6250000000000000  0.4022676898501203
  0.1522676898501203  0.6250000000000000  0.0977323101498799
  0.2500000000000001  0.7500000000000000  0.2500000000000001
  0.0545353797002409  0.7500000000000000  0.2500000000000001
  0.9022676898501204  0.6250000000000000  0.1522676898501204
  0.9022676898501204  0.6250000000000000  0.3477323101498799
  0.0000000000000001  0.7500000000000000  0.0000000000000001
  0.3045353797002406  0.7500000000000000  0.5000000000000002
  0.1522676898501203  0.6250000000000000  0.9022676898501204
  0.1522676898501203  0.6250000000000000  0.5977323101498799
  0.2500000000000001  0.7500000000000000  0.7500000000000003
  0.0545353797002409  0.7500000000000000  0.7500000000000003
  0.9022676898501204  0.6250000000000000  0.6522676898501204
  0.9022676898501204  0.6250000000000000  0.8477323101498802
  0.0000000000000001  0.0000000000000001  0.4999999999999999
  0.3045353797002406  0.0000000000000001  0.0000000000000001
  0.1522676898501203  0.8750000000000001  0.4022676898501203
  0.1522676898501203  0.8750000000000001  0.0977323101498799
  0.2500000000000001  0.0000000000000001  0.2500000000000001
  0.0545353797002409  0.0000000000000001  0.2500000000000001
  0.9022676898501204  0.8750000000000001  0.1522676898501204
  0.9022676898501204  0.8750000000000001  0.3477323101498799
  0.0000000000000001  0.0000000000000001  0.0000000000000001
  0.3045353797002406  0.0000000000000001  0.5000000000000002
  0.1522676898501203  0.8750000000000001  0.9022676898501204
  0.1522676898501203  0.8750000000000001  0.5977323101498799
  0.2500000000000001  0.0000000000000001  0.7500000000000003
  0.0545353797002409  0.0000000000000001  0.7500000000000003
  0.9022676898501204  0.8750000000000001  0.6522676898501204
  0.9022676898501204  0.8750000000000001  0.8477323101498802
  0.0000000000000001  0.2500000000000001  0.4999999999999999
  0.3045353797002406  0.2500000000000001  0.0000000000000001
  0.1522676898501203  0.1250000000000001  0.4022676898501203
  0.1522676898501203  0.1250000000000001  0.0977323101498799
  0.2500000000000001  0.2500000000000001  0.2500000000000001
  0.0545353797002409  0.2500000000000001  0.2500000000000001
  0.9022676898501204  0.1250000000000001  0.1522676898501204
  0.9022676898501204  0.1250000000000001  0.3477323101498799
  0.0000000000000001  0.2500000000000001  0.0000000000000001
  0.3045353797002406  0.2500000000000001  0.5000000000000002
  0.1522676898501203  0.1250000000000001  0.9022676898501204
  0.1522676898501203  0.1250000000000001  0.5977323101498799
  0.2500000000000001  0.2500000000000001  0.7500000000000003
  0.0545353797002409  0.2500000000000001  0.7500000000000003
  0.9022676898501204  0.1250000000000001  0.6522676898501204
  0.9022676898501204  0.1250000000000001  0.8477323101498802
  0.6522676898501203  0.4999999999999999  0.0000000000000001
  0.4022676898501203  0.3750000000000000  0.0000000000000001
  0.4022676898501203  0.4999999999999999  0.2500000000000001
  0.6522676898501204  0.3750000000000000  0.2500000000000001
  0.6522676898501203  0.4999999999999999  0.5000000000000002
  0.4022676898501203  0.3750000000000000  0.5000000000000002
  0.4022676898501203  0.4999999999999999  0.7500000000000003
  0.6522676898501204  0.3750000000000000  0.7500000000000003
  0.6522676898501203  0.7500000000000000  0.0000000000000001
  0.4022676898501203  0.6250000000000000  0.0000000000000001
  0.4022676898501203  0.7500000000000000  0.2500000000000001
  0.6522676898501204  0.6250000000000000  0.2500000000000001
  0.6522676898501203  0.7500000000000000  0.5000000000000002
  0.4022676898501203  0.6250000000000000  0.5000000000000002
  0.4022676898501203  0.7500000000000000  0.7500000000000003
  0.6522676898501204  0.6250000000000000  0.7500000000000003
  0.6522676898501203  0.0000000000000001  0.0000000000000001
  0.4022676898501203  0.8750000000000001  0.0000000000000001
  0.4022676898501203  0.0000000000000001  0.2500000000000001
  0.6522676898501204  0.8750000000000001  0.2500000000000001
  0.6522676898501203  0.0000000000000001  0.5000000000000002
  0.4022676898501203  0.8750000000000001  0.5000000000000002
  0.4022676898501203  0.0000000000000001  0.7500000000000003
  0.6522676898501204  0.8750000000000001  0.7500000000000003
  0.6522676898501203  0.2500000000000001  0.0000000000000001
  0.4022676898501203  0.1250000000000001  0.0000000000000001
  0.4022676898501203  0.2500000000000001  0.2500000000000001
  0.6522676898501204  0.1250000000000001  0.2500000000000001
  0.6522676898501203  0.2500000000000001  0.5000000000000002
  0.4022676898501203  0.1250000000000001  0.5000000000000002
  0.4022676898501203  0.2500000000000001  0.7500000000000003
  0.6522676898501204  0.1250000000000001  0.7500000000000003
  0.1522676898501203  0.4999999999999999  0.0000000000000001
  0.9022676898501204  0.3750000000000000  0.0000000000000001
  0.9022676898501204  0.4999999999999999  0.2500000000000001
  0.1522676898501203  0.3750000000000000  0.2500000000000001
  0.1522676898501203  0.4999999999999999  0.5000000000000002
  0.9022676898501204  0.3750000000000000  0.5000000000000002
  0.9022676898501204  0.4999999999999999  0.7500000000000003
  0.1522676898501203  0.3750000000000000  0.7500000000000003
  0.1522676898501203  0.7500000000000000  0.0000000000000001
  0.9022676898501204  0.6250000000000000  0.0000000000000001
  0.9022676898501204  0.7500000000000000  0.2500000000000001
  0.1522676898501203  0.6250000000000000  0.2500000000000001
  0.1522676898501203  0.7500000000000000  0.5000000000000002
  0.9022676898501204  0.6250000000000000  0.5000000000000002
  0.9022676898501204  0.7500000000000000  0.7500000000000003
  0.1522676898501203  0.6250000000000000  0.7500000000000003
  0.1522676898501203  0.0000000000000001  0.0000000000000001
  0.9022676898501204  0.8750000000000001  0.0000000000000001
  0.9022676898501204  0.0000000000000001  0.2500000000000001
  0.1522676898501203  0.8750000000000001  0.2500000000000001
  0.1522676898501203  0.0000000000000001  0.5000000000000002
  0.9022676898501204  0.8750000000000001  0.5000000000000002
  0.9022676898501204  0.0000000000000001  0.7500000000000003
  0.1522676898501203  0.8750000000000001  0.7500000000000003
  0.1522676898501203  0.2500000000000001  0.0000000000000001
  0.9022676898501204  0.1250000000000001  0.0000000000000001
  0.9022676898501204  0.2500000000000001  0.2500000000000001
  0.1522676898501203  0.1250000000000001  0.2500000000000001
  0.1522676898501203  0.2500000000000001  0.5000000000000002
  0.9022676898501204  0.1250000000000001  0.5000000000000002
  0.9022676898501204  0.2500000000000001  0.7500000000000003
  0.1522676898501203  0.1250000000000001  0.7500000000000003
