Ti  O                                   
   1.00000000000000     
    13.1434743878538995    0.0000000000000000    0.0000000000000000
     0.0000000000000000   11.8684842001132971    0.0000000000000000
     0.0000000000000000    0.0000000000000000   13.1434743878538960
   Ti   O 
    64   127
Direct
  0.2499643801435383  0.1253163032333333  0.1077178031919530
  0.0008432797448137  0.0009962270590194  0.1078690586375401
  0.5005650408224440  0.1190538158781251  0.3596290933962365
  0.2523302472095352  0.0001254218194333  0.3577601079767661
  0.2460891770018279  0.1239864072435708  0.6086438224834581
  0.9951049873019429  0.0000135295857646  0.6087976497469612
  0.5002647565674962  0.1228788663724600  0.8543871050674809
  0.2516701515184323  0.0000985788395198  0.8583109876598982
  0.2504349243194710  0.3754579569098411  0.1091506546935790
  0.0000563282016515  0.2513899821864740  0.1091443643139058
  0.4993841242626118  0.3593118963243001  0.3405645119059031
  0.2479143153416032  0.2496368745856259  0.3585402973391538
  0.2525768426941113  0.3739421457173577  0.6071234738023747
  0.9999623436250502  0.2500194956934365  0.6083777774079948
  0.4996781786358611  0.3681119474757040  0.8591742161868865
  0.2486473532044116  0.2501806859626043  0.8584844947583719
  0.2513201795506461  0.6249035557205289  0.1090609380531191
  0.0000430665267430  0.5006026299954769  0.1081767105048002
  0.4998665088861642  0.6405718239203964  0.3403775043451134
  0.2526505932668428  0.5002108028288816  0.3596021966714460
  0.2519919172855367  0.6239263010709237  0.6088713281415323
  0.0043241075354814  0.4999224880787239  0.6092328287441973
  0.4991875722127261  0.6318874545954287  0.8593798200168052
  0.2510978713787040  0.4999680523310843  0.8590522031901315
  0.2487551521127429  0.8749706448030921  0.1079732157033177
  0.0002983263752157  0.7491209943623076  0.1080066275925446
  0.5000386917708681  0.8810183770236719  0.3594727975675767
  0.2478665373954385  0.7501050318681948  0.3587800965483154
  0.2463536139130298  0.8740369510787858  0.6073157395798816
  0.9998958661779938  0.7504895851201709  0.6072206100456299
  0.5004813466176827  0.8767982988482004  0.8538720641210773
  0.2486610137683769  0.7503502316649602  0.8585914090042124
  0.7513216419718560  0.1251208743059777  0.1075979465005972
  0.5000974240685991  0.9988689217070217  0.1051835436534816
  0.0001315751320945  0.1238234958846078  0.3593011757801960
  0.7482423142468591  0.9998962674628942  0.3577726545533082
  0.7464861374739513  0.1256357607060039  0.6075557685680337
  0.4935314456916160  0.9999365934403173  0.6092944337099553
  0.0001847522938121  0.1255652888705185  0.8578240972257518
  0.7490167894132895  0.0001068057462064  0.8586854587746160
  0.7496809340291222  0.3752818346732170  0.1089929667520764
  0.5006208953980504  0.2474561327442188  0.1010603793328073
  0.9999537735669008  0.3744830996096340  0.3577533646385191
  0.7522558024870989  0.2498549948550917  0.3583523090896534
  0.7536780194278307  0.3757142517436165  0.6080232779833850
  0.5015178435504808  0.2511508312129109  0.6008286696915022
  0.9994478275881846  0.3753857958659168  0.8591721810475974
  0.7512488075467942  0.2502482533944672  0.8581406921198891
  0.7493442661188325  0.6249194425985678  0.1094885903654088
  0.4995856500205846  0.4993346064186142  0.0998190747784520
  0.9991550462494985  0.6235331017208807  0.3587949987295858
  0.7460836583466559  0.4998387069683190  0.3596435261112632
  0.7541024834312182  0.6252268038069104  0.6084378928074798
  0.5021682977765920  0.5000022686249466  0.6291395284515602
  0.9999624379228678  0.6255288156146506  0.8574445108924991
  0.7479909771483193  0.5002702067010105  0.8593892214770094
  0.7527353210604844  0.8747087378697742  0.1084844777034704
  0.5008297618306514  0.7517171785699546  0.1010562044358778
  0.0006008879814416  0.8741918523728245  0.3569501712709098
  0.7521839324237476  0.7504254419156169  0.3599248024985542
  0.7459967619626013  0.8758442630265719  0.6085801945599201
  0.5013035375096777  0.7483059049659886  0.6003807887805621
  0.0000057589087774  0.8751797907879890  0.8582371062681986
  0.7513007655052775  0.7498042826925015  0.8588165788063691
  0.0977598825476989  0.1250070220759909  0.1081369042035405
  0.4025198507592052  0.1249522275334982  0.1057069351664950
  0.2499729142166274  0.0000336706290156  0.0099420612152841
  0.2505280796741189  0.9999896214192106  0.2054574679306711
  0.3482947584065244  0.1245876110667936  0.3581510131312058
  0.1528327978528807  0.1256089184713431  0.3581949284267623
  0.0000636191105627  0.9999945179446144  0.2606478000382637
  0.9997450175047291  0.0000781965572472  0.4556459986277375
  0.0976132269534347  0.1251203185354939  0.6081964903124941
  0.4029083347304478  0.1265414352774954  0.6060551626981194
  0.2500995187618358  0.9999994534048398  0.5102890721583648
  0.2508914177414141  0.0000435979798254  0.7051333086152383
  0.3484372469697306  0.1250853706259605  0.8568941479422136
  0.1528198269352501  0.1253384238365953  0.8573567520647671
  0.9997208519841649  0.0000187081851308  0.7602679449636511
  0.0001276949260784  0.9999789412147990  0.9555866088380256
  0.0977424843494461  0.3750270298980993  0.1083140286792883
  0.4029872462179682  0.3748410148335353  0.1096335157432620
  0.2503386648138815  0.2502563314113502  0.0102544909161466
  0.2510998451008888  0.2499339678246670  0.2059499921229957
  0.3511611588545591  0.3762825944499397  0.3602609256898930
  0.1535781366763516  0.3748838033451278  0.3575313940025069
  0.9999391904725172  0.2500860731420218  0.2604975690454836
  0.9999972168699429  0.2502683865548292  0.4557213662655428
  0.0980051087715950  0.3750049193269547  0.6081248183795012
  0.4041333446190123  0.3799238880344689  0.6017498488616724
  0.2501457689154094  0.2502570981637149  0.5101159452389084
  0.2518331896193828  0.2510503554625672  0.7049992700223058
  0.3487946438634069  0.3753596421184184  0.8586327288094324
  0.1529516051113404  0.3751806691139308  0.8577107912255286
  0.0000289014697117  0.2500808071366833  0.7603320383018897
  0.0000244045140292  0.2500102709870973  0.9555785459003090
  0.0976662916228221  0.6250757498379116  0.1082981806176022
  0.4029857529099061  0.6251343915409606  0.1096674463517715
  0.2505788289640662  0.5000605768257103  0.0107029821547826
  0.2507913212961768  0.5000137245869141  0.2060412715502054
  0.3512039576069768  0.6237230447469884  0.3602429987135665
  0.1536858434703419  0.6251428481711017  0.3575786223360424
  0.9999449037073305  0.5000178953551924  0.2606849948508412
  0.0001857985078928  0.5000464633452992  0.4555076339683026
  0.0980261834053167  0.6250334920643610  0.6081777017823882
  0.4041305054352833  0.6201521488420596  0.6018342394368332
  0.2485223905606944  0.5000143586732904  0.5099053013657198
  0.2520701133208902  0.5000444917098932  0.7054503598973341
  0.3488404322109844  0.6247549558383128  0.8586413895245570
  0.1529067261229429  0.6249686626786684  0.8576369822026990
  0.0002825586980109  0.5000624248529633  0.7603176895065076
  0.0000168296918801  0.5000278384825378  0.9556597015258461
  0.0978645287331119  0.8750338064763312  0.1080457487602757
  0.4026246485703027  0.8750322521144582  0.1056903264194418
  0.2503502616068474  0.7497338876202306  0.0102507954369813
  0.2510912517359216  0.7501229182350571  0.2059134210120632
  0.3483790732871554  0.8754790731553470  0.3581026988776870
  0.1528024538000992  0.8744040939209796  0.3581143582951967
  0.9999498490592771  0.7500979506311225  0.2604881384503059
  0.9999951039640607  0.7497402037884129  0.4557335293602449
  0.0975675880171067  0.8748936431786092  0.6081226425932442
  0.4028599937997797  0.8734828308579097  0.6060430686518785
  0.2501294433022494  0.7498683018023016  0.5101046550692843
  0.2518099661615523  0.7489964182858984  0.7050311720707469
  0.3483897578982393  0.8749704644225673  0.8568834270580581
  0.1528263328082957  0.8747619879460444  0.8573885014990239
  0.0000013247573563  0.7499353943601221  0.7603647471897972
  0.0000226822657723  0.7501093908793877  0.9556152435213221
  0.5974660537668228  0.1250179131442692  0.1057604244974684
  0.9023222112875189  0.1249387984539823  0.1081070908320569
  0.7500070247057451  0.0000669597049878  0.0099957501356300
  0.7494823036262233  0.0000764511146940  0.2055305123720998
  0.8470486809757745  0.1255423002416123  0.3581917191360375
  0.6515018739358922  0.1245864405717754  0.3581088222909088
  0.5000445785269108  0.0000326258725281  0.2589106082294563
  0.4996646832233296  0.9999732141092181  0.4569634161357499
  0.5967125219681719  0.1264886123723272  0.6059644001079718
  0.9021121454007996  0.1253247413589662  0.6080966690705409
  0.7493797658219705  0.0000324509898633  0.5103547572231690
  0.7485443694587488  0.0000633973663753  0.7050863041607656
  0.8471287404246226  0.1252196529983394  0.8574417062783510
  0.6515457561878364  0.1251233634816344  0.8569352602694309
  0.4996948499780913  0.0000471042160868  0.7572192756173877
  0.5000647917661993  0.9999605922383665  0.9532752966569760
  0.5969564304691417  0.3748113723885282  0.1096691667028864
  0.9022401705149363  0.3750200677762336  0.1083362055633970
  0.7497010593479203  0.2503154000021155  0.0103187568065479
  0.7489307714924038  0.2499544933912858  0.2059857414709967
  0.8462895244749760  0.3748828243363604  0.3575969016824700
  0.6486766712042069  0.3763034388739754  0.3603323083886565
  0.4998177880694072  0.2431538604846537  0.2549048018051607
  0.4999955817082835  0.2517784691413851  0.4518993923293593
  0.5962465374054773  0.3792278116788097  0.6018158018740536
  0.9026105895623502  0.3752011264327564  0.6081909210210839
  0.7499746996395160  0.2501699500651569  0.5101378670005872
  0.7483517995238955  0.2509781288428599  0.7050769425278958
  0.8472598443638191  0.3751148075221167  0.8576795129515844
  0.6514131191398675  0.3752720695360381  0.8586866459991640
  0.5000852426668985  0.2525414553927305  0.7584579106604323
  0.5000398895243734  0.2486597152671877  0.9545149501367121
  0.5969765874982969  0.6251443572434496  0.1097047329354908
  0.9023618165541123  0.6250673772017450  0.1082954934674589
  0.7494365163859698  0.5000141468906136  0.0107571165829938
  0.7491521824472471  0.5000516124658603  0.2061359264452918
  0.8463826904958012  0.6251182768841801  0.3576917969607862
  0.6486709665481669  0.6236982350635927  0.3603882945550652
  0.5000339354741072  0.4999609572706873  0.2728221279304393
  0.5961824451413236  0.6208390286415124  0.6018327031180135
  0.9025376410923300  0.6248819331396192  0.6082265071854636
  0.7517176091558184  0.5000672899588423  0.5099565337894134
  0.7484481358693671  0.5000082040603857  0.7053809944847771
  0.8472351656018802  0.6249720209485687  0.8576048815258162
  0.6514554980708311  0.6247866609686881  0.8587008205328743
  0.5005737342724217  0.5000193850724486  0.7649885749129552
  0.5000112862830974  0.4999821606443504  0.9576370988961003
  0.5973919240483880  0.8750084505733682  0.1057906462798499
  0.9022758519671683  0.8751095779745626  0.1081258004531307
  0.7497261597934894  0.7498048265866615  0.0103401546162942
  0.7489843403259542  0.7500748435475586  0.2059363932150404
  0.8470143727714188  0.8745040256346854  0.3581840400951890
  0.6515541183627960  0.8753728699420762  0.3581196409755876
  0.4999328590371590  0.7568114495753306  0.2548407089450393
  0.4999567217526035  0.7482066918626060  0.4518407218201688
  0.5966897590408351  0.8735513529837817  0.6059931300676169
  0.9021525497945859  0.8747463785511371  0.6081165095752397
  0.7500080009869592  0.7498643334823996  0.5101556665421327
  0.7483611244086816  0.7491778340560415  0.7051031943358055
  0.8471535407268718  0.8749074688361347  0.8574612731675231
  0.6515223757625677  0.8749794858631006  0.8569155469428011
  0.5000467620579414  0.7474522396626782  0.7585115473641650
  0.5000602880440468  0.7514123781827422  0.9545417942555972
 
  0.00000000E+00  0.00000000E+00  0.00000000E+00
  0.00000000E+00  0.00000000E+00  0.00000000E+00
  0.00000000E+00  0.00000000E+00  0.00000000E+00
  0.00000000E+00  0.00000000E+00  0.00000000E+00
  0.00000000E+00  0.00000000E+00  0.00000000E+00
  0.00000000E+00  0.00000000E+00  0.00000000E+00
  0.00000000E+00  0.00000000E+00  0.00000000E+00
  0.00000000E+00  0.00000000E+00  0.00000000E+00
  0.00000000E+00  0.00000000E+00  0.00000000E+00
  0.00000000E+00  0.00000000E+00  0.00000000E+00
  0.00000000E+00  0.00000000E+00  0.00000000E+00
  0.00000000E+00  0.00000000E+00  0.00000000E+00
  0.00000000E+00  0.00000000E+00  0.00000000E+00
  0.00000000E+00  0.00000000E+00  0.00000000E+00
  0.00000000E+00  0.00000000E+00  0.00000000E+00
  0.00000000E+00  0.00000000E+00  0.00000000E+00
  0.00000000E+00  0.00000000E+00  0.00000000E+00
  0.00000000E+00  0.00000000E+00  0.00000000E+00
  0.00000000E+00  0.00000000E+00  0.00000000E+00
  0.00000000E+00  0.00000000E+00  0.00000000E+00
  0.00000000E+00  0.00000000E+00  0.00000000E+00
  0.00000000E+00  0.00000000E+00  0.00000000E+00
  0.00000000E+00  0.00000000E+00  0.00000000E+00
  0.00000000E+00  0.00000000E+00  0.00000000E+00
  0.00000000E+00  0.00000000E+00  0.00000000E+00
  0.00000000E+00  0.00000000E+00  0.00000000E+00
  0.00000000E+00  0.00000000E+00  0.00000000E+00
  0.00000000E+00  0.00000000E+00  0.00000000E+00
  0.00000000E+00  0.00000000E+00  0.00000000E+00
  0.00000000E+00  0.00000000E+00  0.00000000E+00
  0.00000000E+00  0.00000000E+00  0.00000000E+00
  0.00000000E+00  0.00000000E+00  0.00000000E+00
  0.00000000E+00  0.00000000E+00  0.00000000E+00
  0.00000000E+00  0.00000000E+00  0.00000000E+00
  0.00000000E+00  0.00000000E+00  0.00000000E+00
  0.00000000E+00  0.00000000E+00  0.00000000E+00
  0.00000000E+00  0.00000000E+00  0.00000000E+00
  0.00000000E+00  0.00000000E+00  0.00000000E+00
  0.00000000E+00  0.00000000E+00  0.00000000E+00
  0.00000000E+00  0.00000000E+00  0.00000000E+00
  0.00000000E+00  0.00000000E+00  0.00000000E+00
  0.00000000E+00  0.00000000E+00  0.00000000E+00
  0.00000000E+00  0.00000000E+00  0.00000000E+00
  0.00000000E+00  0.00000000E+00  0.00000000E+00
  0.00000000E+00  0.00000000E+00  0.00000000E+00
  0.00000000E+00  0.00000000E+00  0.00000000E+00
  0.00000000E+00  0.00000000E+00  0.00000000E+00
  0.00000000E+00  0.00000000E+00  0.00000000E+00
  0.00000000E+00  0.00000000E+00  0.00000000E+00
  0.00000000E+00  0.00000000E+00  0.00000000E+00
  0.00000000E+00  0.00000000E+00  0.00000000E+00
  0.00000000E+00  0.00000000E+00  0.00000000E+00
  0.00000000E+00  0.00000000E+00  0.00000000E+00
  0.00000000E+00  0.00000000E+00  0.00000000E+00
  0.00000000E+00  0.00000000E+00  0.00000000E+00
  0.00000000E+00  0.00000000E+00  0.00000000E+00
  0.00000000E+00  0.00000000E+00  0.00000000E+00
  0.00000000E+00  0.00000000E+00  0.00000000E+00
  0.00000000E+00  0.00000000E+00  0.00000000E+00
  0.00000000E+00  0.00000000E+00  0.00000000E+00
  0.00000000E+00  0.00000000E+00  0.00000000E+00
  0.00000000E+00  0.00000000E+00  0.00000000E+00
  0.00000000E+00  0.00000000E+00  0.00000000E+00
  0.00000000E+00  0.00000000E+00  0.00000000E+00
  0.00000000E+00  0.00000000E+00  0.00000000E+00
  0.00000000E+00  0.00000000E+00  0.00000000E+00
  0.00000000E+00  0.00000000E+00  0.00000000E+00
  0.00000000E+00  0.00000000E+00  0.00000000E+00
  0.00000000E+00  0.00000000E+00  0.00000000E+00
  0.00000000E+00  0.00000000E+00  0.00000000E+00
  0.00000000E+00  0.00000000E+00  0.00000000E+00
  0.00000000E+00  0.00000000E+00  0.00000000E+00
  0.00000000E+00  0.00000000E+00  0.00000000E+00
  0.00000000E+00  0.00000000E+00  0.00000000E+00
  0.00000000E+00  0.00000000E+00  0.00000000E+00
  0.00000000E+00  0.00000000E+00  0.00000000E+00
  0.00000000E+00  0.00000000E+00  0.00000000E+00
  0.00000000E+00  0.00000000E+00  0.00000000E+00
  0.00000000E+00  0.00000000E+00  0.00000000E+00
  0.00000000E+00  0.00000000E+00  0.00000000E+00
  0.00000000E+00  0.00000000E+00  0.00000000E+00
  0.00000000E+00  0.00000000E+00  0.00000000E+00
  0.00000000E+00  0.00000000E+00  0.00000000E+00
  0.00000000E+00  0.00000000E+00  0.00000000E+00
  0.00000000E+00  0.00000000E+00  0.00000000E+00
  0.00000000E+00  0.00000000E+00  0.00000000E+00
  0.00000000E+00  0.00000000E+00  0.00000000E+00
  0.00000000E+00  0.00000000E+00  0.00000000E+00
  0.00000000E+00  0.00000000E+00  0.00000000E+00
  0.00000000E+00  0.00000000E+00  0.00000000E+00
  0.00000000E+00  0.00000000E+00  0.00000000E+00
  0.00000000E+00  0.00000000E+00  0.00000000E+00
  0.00000000E+00  0.00000000E+00  0.00000000E+00
  0.00000000E+00  0.00000000E+00  0.00000000E+00
  0.00000000E+00  0.00000000E+00  0.00000000E+00
  0.00000000E+00  0.00000000E+00  0.00000000E+00
  0.00000000E+00  0.00000000E+00  0.00000000E+00
  0.00000000E+00  0.00000000E+00  0.00000000E+00
  0.00000000E+00  0.00000000E+00  0.00000000E+00
  0.00000000E+00  0.00000000E+00  0.00000000E+00
  0.00000000E+00  0.00000000E+00  0.00000000E+00
  0.00000000E+00  0.00000000E+00  0.00000000E+00
  0.00000000E+00  0.00000000E+00  0.00000000E+00
  0.00000000E+00  0.00000000E+00  0.00000000E+00
  0.00000000E+00  0.00000000E+00  0.00000000E+00
  0.00000000E+00  0.00000000E+00  0.00000000E+00
  0.00000000E+00  0.00000000E+00  0.00000000E+00
  0.00000000E+00  0.00000000E+00  0.00000000E+00
  0.00000000E+00  0.00000000E+00  0.00000000E+00
  0.00000000E+00  0.00000000E+00  0.00000000E+00
  0.00000000E+00  0.00000000E+00  0.00000000E+00
  0.00000000E+00  0.00000000E+00  0.00000000E+00
  0.00000000E+00  0.00000000E+00  0.00000000E+00
  0.00000000E+00  0.00000000E+00  0.00000000E+00
  0.00000000E+00  0.00000000E+00  0.00000000E+00
  0.00000000E+00  0.00000000E+00  0.00000000E+00
  0.00000000E+00  0.00000000E+00  0.00000000E+00
  0.00000000E+00  0.00000000E+00  0.00000000E+00
  0.00000000E+00  0.00000000E+00  0.00000000E+00
  0.00000000E+00  0.00000000E+00  0.00000000E+00
  0.00000000E+00  0.00000000E+00  0.00000000E+00
  0.00000000E+00  0.00000000E+00  0.00000000E+00
  0.00000000E+00  0.00000000E+00  0.00000000E+00
  0.00000000E+00  0.00000000E+00  0.00000000E+00
  0.00000000E+00  0.00000000E+00  0.00000000E+00
  0.00000000E+00  0.00000000E+00  0.00000000E+00
  0.00000000E+00  0.00000000E+00  0.00000000E+00
  0.00000000E+00  0.00000000E+00  0.00000000E+00
  0.00000000E+00  0.00000000E+00  0.00000000E+00
  0.00000000E+00  0.00000000E+00  0.00000000E+00
  0.00000000E+00  0.00000000E+00  0.00000000E+00
  0.00000000E+00  0.00000000E+00  0.00000000E+00
  0.00000000E+00  0.00000000E+00  0.00000000E+00
  0.00000000E+00  0.00000000E+00  0.00000000E+00
  0.00000000E+00  0.00000000E+00  0.00000000E+00
  0.00000000E+00  0.00000000E+00  0.00000000E+00
  0.00000000E+00  0.00000000E+00  0.00000000E+00
  0.00000000E+00  0.00000000E+00  0.00000000E+00
  0.00000000E+00  0.00000000E+00  0.00000000E+00
  0.00000000E+00  0.00000000E+00  0.00000000E+00
  0.00000000E+00  0.00000000E+00  0.00000000E+00
  0.00000000E+00  0.00000000E+00  0.00000000E+00
  0.00000000E+00  0.00000000E+00  0.00000000E+00
  0.00000000E+00  0.00000000E+00  0.00000000E+00
  0.00000000E+00  0.00000000E+00  0.00000000E+00
  0.00000000E+00  0.00000000E+00  0.00000000E+00
  0.00000000E+00  0.00000000E+00  0.00000000E+00
  0.00000000E+00  0.00000000E+00  0.00000000E+00
  0.00000000E+00  0.00000000E+00  0.00000000E+00
  0.00000000E+00  0.00000000E+00  0.00000000E+00
  0.00000000E+00  0.00000000E+00  0.00000000E+00
  0.00000000E+00  0.00000000E+00  0.00000000E+00
  0.00000000E+00  0.00000000E+00  0.00000000E+00
  0.00000000E+00  0.00000000E+00  0.00000000E+00
  0.00000000E+00  0.00000000E+00  0.00000000E+00
  0.00000000E+00  0.00000000E+00  0.00000000E+00
  0.00000000E+00  0.00000000E+00  0.00000000E+00
  0.00000000E+00  0.00000000E+00  0.00000000E+00
  0.00000000E+00  0.00000000E+00  0.00000000E+00
  0.00000000E+00  0.00000000E+00  0.00000000E+00
  0.00000000E+00  0.00000000E+00  0.00000000E+00
  0.00000000E+00  0.00000000E+00  0.00000000E+00
  0.00000000E+00  0.00000000E+00  0.00000000E+00
  0.00000000E+00  0.00000000E+00  0.00000000E+00
  0.00000000E+00  0.00000000E+00  0.00000000E+00
  0.00000000E+00  0.00000000E+00  0.00000000E+00
  0.00000000E+00  0.00000000E+00  0.00000000E+00
  0.00000000E+00  0.00000000E+00  0.00000000E+00
  0.00000000E+00  0.00000000E+00  0.00000000E+00
  0.00000000E+00  0.00000000E+00  0.00000000E+00
  0.00000000E+00  0.00000000E+00  0.00000000E+00
  0.00000000E+00  0.00000000E+00  0.00000000E+00
  0.00000000E+00  0.00000000E+00  0.00000000E+00
  0.00000000E+00  0.00000000E+00  0.00000000E+00
  0.00000000E+00  0.00000000E+00  0.00000000E+00
  0.00000000E+00  0.00000000E+00  0.00000000E+00
  0.00000000E+00  0.00000000E+00  0.00000000E+00
  0.00000000E+00  0.00000000E+00  0.00000000E+00
  0.00000000E+00  0.00000000E+00  0.00000000E+00
  0.00000000E+00  0.00000000E+00  0.00000000E+00
  0.00000000E+00  0.00000000E+00  0.00000000E+00
  0.00000000E+00  0.00000000E+00  0.00000000E+00
  0.00000000E+00  0.00000000E+00  0.00000000E+00
  0.00000000E+00  0.00000000E+00  0.00000000E+00
  0.00000000E+00  0.00000000E+00  0.00000000E+00
  0.00000000E+00  0.00000000E+00  0.00000000E+00
  0.00000000E+00  0.00000000E+00  0.00000000E+00
  0.00000000E+00  0.00000000E+00  0.00000000E+00
  0.00000000E+00  0.00000000E+00  0.00000000E+00
  0.00000000E+00  0.00000000E+00  0.00000000E+00
  0.00000000E+00  0.00000000E+00  0.00000000E+00
