Ti  O                                   
   1.00000000000000     
    13.1434743878538995    0.0000000000000000    0.0000000000000000
     0.0000000000000000   11.8684842001132971    0.0000000000000000
     0.0000000000000000    0.0000000000000000   13.1434743878538960
   Ti   O 
    64   127
Direct
  0.2499643801435377  0.1253163032333335  0.1077178031919498
  0.0008432797448103  0.0009962270590178  0.1078690586375407
  0.5005650408224439  0.1190538158781278  0.3596290933962353
  0.2523302472095336  0.0001254218194302  0.3577601079767672
  0.2460891770018291  0.1239864072435711  0.6086438224834553
 -0.0048950126980582  0.0000135295857629  0.6087976497469584
  0.5002647565674940  0.1228788663724595  0.8543871050674842
  0.2516701515184320  0.0000985788395209  0.8583109876598968
  0.2504349243194721  0.3754579569098419  0.1091506546935774
  0.0000563282016485  0.2513899821864761  0.1091443643139051
  0.4993841242626103  0.3593118963242966  0.3405645119059021
  0.2479143153416048  0.2496368745856247  0.3585402973391530
  0.2525768426941144  0.3739421457173559  0.6071234738023767
 -0.0000376563749525  0.2500194956934389  0.6083777774079941
  0.4996781786358646  0.3681119474757066  0.8591742161868878
  0.2486473532044125  0.2501806859626049  0.8584844947583687
  0.2513201795506443  0.6249035557205290  0.1090609380531219
  0.0000430665267446  0.5006026299954737  0.1081767105048007
  0.4998665088861653  0.6405718239203975  0.3403775043451131
  0.2526505932668450  0.5002108028288791  0.3596021966714440
  0.2519919172855392  0.6239263010709205  0.6088713281415304
  0.0043241075354835  0.4999224880787259  0.6092328287441969
  0.4991875722127279  0.6318874545954284  0.8593798200168047
  0.2510978713787068  0.4999680523310852  0.8590522031901333
  0.2487551521127402  0.8749706448030926  0.1079732157033204
  0.0002983263752126  0.7491209943623049  0.1080066275925434
  0.5000386917708712  0.8810183770236714  0.3594727975675740
  0.2478665373954398  0.7501050318681947  0.3587800965483165
  0.2463536139130332  0.8740369510787858  0.6073157395798796
 -0.0001041338220029  0.7504895851201705  0.6072206100456334
  0.5004813466176840  0.8767982988481994  0.8538720641210775
  0.2486610137683798  0.7503502316649636  0.8585914090042156
  0.7513216419718550  0.1251208743059797  0.1075979465005986
  0.5000974240686022 -0.0011310782929778  0.1051835436534799
  0.0001315751320970  0.1238234958846052  0.3593011757801940
  0.7482423142468569 -0.0001037325371030  0.3577726545533085
  0.7464861374739514  0.1256357607060021  0.6075557685680354
  0.4935314456916193 -0.0000634065596856  0.6092944337099520
  0.0001847522938140  0.1255652888705158  0.8578240972257544
  0.7490167894132905  0.0001068057462058  0.8586854587746142
  0.7496809340291190  0.3752818346732148  0.1089929667520734
  0.5006208953980517  0.2474561327442197  0.1010603793328039
 -0.0000462264330972  0.3744830996096353  0.3577533646385206
  0.7522558024870978  0.2498549948550904  0.3583523090896548
  0.7536780194278339  0.3757142517436177  0.6080232779833868
  0.5015178435504807  0.2511508312129134  0.6008286696915026
 -0.0005521724118129  0.3753857958659148  0.8591721810476001
  0.7512488075467922  0.2502482533944646  0.8581406921198884
  0.7493442661188293  0.6249194425985649  0.1094885903654063
  0.4995856500205846  0.4993346064186136  0.0998190747784515
 -0.0008449537505041  0.6235331017208806  0.3587949987295848
  0.7460836583466525  0.4998387069683207  0.3596435261112619
  0.7541024834312213  0.6252268038069123  0.6084378928074778
  0.5021682977765947  0.5000022686249431  0.6291395284515570
 -0.0000375620771314  0.6255288156146486  0.8574445108925020
  0.7479909771483222  0.5002702067010121  0.8593892214770080
  0.7527353210604878  0.8747087378697742  0.1084844777034686
  0.5008297618306494  0.7517171785699523  0.1010562044358790
  0.0006008879814449  0.8741918523728260  0.3569501712709080
  0.7521839324237505  0.7504254419156194  0.3599248024985545
  0.7459967619625983  0.8758442630265744  0.6085801945599216
  0.5013035375096792  0.7483059049659881  0.6003807887805613
  0.0000057589087746  0.8751797907879860  0.8582371062681954
  0.7513007655052775  0.7498042826925050  0.8588165788063666
  0.0977598825477018  0.1250070220759933  0.1081369042035394
  0.4025198507592026  0.1249522275335011  0.1057069351664962
  0.2499729142166253  0.0000336706290164  0.0099420612152841
  0.2505280796741167 -0.0000103785807910  0.2054574679306739
  0.3482947584065219  0.1245876110667937  0.3581510131312081
  0.1528327978528828  0.1256089184713426  0.3581949284267598
  0.0000636191105658 -0.0000054820553842  0.2606478000382620
 -0.0002549824952744  0.0000781965572439  0.4556459986277364
  0.0976132269534357  0.1251203185354936  0.6081964903124925
  0.4029083347304485  0.1265414352774955  0.6060551626981218
  0.2500995187618352 -0.0000005465951600  0.5102890721583626
  0.2508914177414156  0.0000435979798234  0.7051333086152404
  0.3484372469697273  0.1250853706259575  0.8568941479422165
  0.1528198269352504  0.1253384238365961  0.8573567520647695
 -0.0002791480158322  0.0000187081851316  0.7602679449636544
  0.0001276949260800 -0.0000210587851985  0.9555866088380284
  0.0977424843494428  0.3750270298981023  0.1083140286792858
  0.4029872462179683  0.3748410148335378  0.1096335157432650
  0.2503386648138848  0.2502563314113524  0.0102544909161489
  0.2510998451008905  0.2499339678246690  0.2059499921229987
  0.3511611588545591  0.3762825944499396  0.3602609256898942
  0.1535781366763534  0.3748838033451281  0.3575313940025052
 -0.0000608095274822  0.2500860731420244  0.2604975690454822
 -0.0000027831300549  0.2502683865548318  0.4557213662655416
  0.0980051087715922  0.3750049193269552  0.6081248183795033
  0.4041333446190150  0.3799238880344687  0.6017498488616756
  0.2501457689154062  0.2502570981637151  0.5101159452389095
  0.2518331896193844  0.2510503554625658  0.7049992700223067
  0.3487946438634043  0.3753596421184217  0.8586327288094333
  0.1529516051113436  0.3751806691139282  0.8577107912255291
  0.0000289014697112  0.2500808071366816  0.7603320383018899
  0.0000244045140270  0.2500102709870942  0.9555785459003074
  0.0976662916228197  0.6250757498379114  0.1082981806176004
  0.4029857529099065  0.6251343915409636  0.1096674463517733
  0.2505788289640698  0.5000605768257078  0.0107029821547791
  0.2507913212961801  0.5000137245869151  0.2060412715502054
  0.3512039576069772  0.6237230447469879  0.3602429987135647
  0.1536858434703406  0.6251428481710990  0.3575786223360421
 -0.0000550962926693  0.5000178953551951  0.2606849948508407
  0.0001857985078954  0.5000464633452975  0.4555076339683056
  0.0980261834053182  0.6250334920643641  0.6081777017823913
  0.4041305054352815  0.6201521488420617  0.6018342394368335
  0.2485223905606944  0.5000143586732898  0.5099053013657169
  0.2520701133208889  0.5000444917098905  0.7054503598973375
  0.3488404322109832  0.6247549558383146  0.8586413895245554
  0.1529067261229443  0.6249686626786697  0.8576369822026964
  0.0002825586980124  0.5000624248529654  0.7603176895065066
  0.0000168296918797  0.5000278384825346  0.9556597015258429
  0.0978645287331087  0.8750338064763322  0.1080457487602727
  0.4026246485703058  0.8750322521144572  0.1056903264194397
  0.2503502616068493  0.7497338876202289  0.0102507954369823
  0.2510912517359221  0.7501229182350597  0.2059134210120666
  0.3483790732871575  0.8754790731553497  0.3581026988776895
  0.1528024538000987  0.8744040939209768  0.3581143582951982
 -0.0000501509407237  0.7500979506311222  0.2604881384503027
 -0.0000048960359381  0.7497402037884155  0.4557335293602460
  0.0975675880171096  0.8748936431786087  0.6081226425932418
  0.4028599937997791  0.8734828308579102  0.6060430686518752
  0.2501294433022482  0.7498683018023031  0.5101046550692817
  0.2518099661615557  0.7489964182859006  0.7050311720707465
  0.3483897578982406  0.8749704644225692  0.8568834270580583
  0.1528263328082973  0.8747619879460459  0.8573885014990233
  0.0000013247573598  0.7499353943601191  0.7603647471897936
  0.0000226822657730  0.7501093908793901  0.9556152435213247
  0.5974660537668262  0.1250179131442727  0.1057604244974657
  0.9023222112875209  0.1249387984539828  0.1081070908320598
  0.7500070247057454  0.0000669597049909  0.0099957501356303
  0.7494823036262198  0.0000764511146930  0.2055305123720985
  0.8470486809757759  0.1255423002416120  0.3581917191360403
  0.6515018739358922  0.1245864405717744  0.3581088222909071
  0.5000445785269110  0.0000326258725296  0.2589106082294563
  0.4996646832233285 -0.0000267858907805  0.4569634161357493
  0.5967125219681723  0.1264886123723299  0.6059644001079714
  0.9021121454008025  0.1253247413589656  0.6080966690705411
  0.7493797658219706  0.0000324509898620  0.5103547572231695
  0.7485443694587497  0.0000633973663770  0.7050863041607642
  0.8471287404246250  0.1252196529983370  0.8574417062783534
  0.6515457561878363  0.1251233634816313  0.8569352602694299
  0.4996948499780918  0.0000471042160894  0.7572192756173898
  0.5000647917661978 -0.0000394077616339  0.9532752966569767
  0.5969564304691386  0.3748113723885315  0.1096691667028864
  0.9022401705149330  0.3750200677762372  0.1083362055633947
  0.7497010593479222  0.2503154000021128  0.0103187568065450
  0.7489307714924049  0.2499544933912890  0.2059857414709975
  0.8462895244749775  0.3748828243363622  0.3575969016824674
  0.6486766712042039  0.3763034388739752  0.3603323083886594
  0.4998177880694069  0.2431538604846502  0.2549048018051578
  0.4999955817082865  0.2517784691413882  0.4518993923293572
  0.5962465374054750  0.3792278116788086  0.6018158018740534
  0.9026105895623515  0.3752011264327559  0.6081909210210839
  0.7499746996395128  0.2501699500651599  0.5101378670005859
  0.7483517995238934  0.2509781288428615  0.7050769425278977
  0.8472598443638170  0.3751148075221187  0.8576795129515873
  0.6514131191398664  0.3752720695360396  0.8586866459991620
  0.5000852426668959  0.2525414553927281  0.7584579106604357
  0.5000398895243762  0.2486597152671859  0.9545149501367087
  0.5969765874982960  0.6251443572434507  0.1097047329354935
  0.9023618165541127  0.6250673772017433  0.1082954934674560
  0.7494365163859698  0.5000141468906107  0.0107571165829940
  0.7491521824472505  0.5000516124658587  0.2061359264452897
  0.8463826904958025  0.6251182768841782  0.3576917969607857
  0.6486709665481702  0.6236982350635893  0.3603882945550667
  0.5000339354741073  0.4999609572706895  0.2728221279304365
  0.5961824451413256  0.6208390286415137  0.6018327031180141
  0.9025376410923296  0.6248819331396207  0.6082265071854671
  0.7517176091558171  0.5000672899588442  0.5099565337894166
  0.7484481358693699  0.5000082040603857  0.7053809944847794
  0.8472351656018767  0.6249720209485707  0.8576048815258160
  0.6514554980708318  0.6247866609686915  0.8587008205328727
  0.5005737342724189  0.5000193850724488  0.7649885749129554
  0.5000112862831003  0.4999821606443512  0.9576370988961030
  0.5973919240483913  0.8750084505733707  0.1057906462798482
  0.9022758519671710  0.8751095779745637  0.1081258004531288
  0.7497261597934862  0.7498048265866586  0.0103401546162940
  0.7489843403259544  0.7500748435475605  0.2059363932150430
  0.8470143727714196  0.8745040256346850  0.3581840400951903
  0.6515541183627938  0.8753728699420738  0.3581196409755880
  0.4999328590371620  0.7568114495753299  0.2548407089450391
  0.4999567217526012  0.7482066918626074  0.4518407218201677
  0.5966897590408357  0.8735513529837821  0.6059931300676205
  0.9021525497945851  0.8747463785511379  0.6081165095752409
  0.7500080009869613  0.7498643334823963  0.5101556665421306
  0.7483611244086849  0.7491778340560403  0.7051031943358083
  0.8471535407268738  0.8749074688361381  0.8574612731675232
  0.6515223757625688  0.8749794858631031  0.8569155469427988
  0.5000467620579425  0.7474522396626788  0.7585115473641659
  0.5000602880440490  0.7514123781827410  0.9545417942555968
 
  0.00000000E+00  0.00000000E+00  0.00000000E+00
  0.00000000E+00  0.00000000E+00  0.00000000E+00
  0.00000000E+00  0.00000000E+00  0.00000000E+00
  0.00000000E+00  0.00000000E+00  0.00000000E+00
  0.00000000E+00  0.00000000E+00  0.00000000E+00
  0.00000000E+00  0.00000000E+00  0.00000000E+00
  0.00000000E+00  0.00000000E+00  0.00000000E+00
  0.00000000E+00  0.00000000E+00  0.00000000E+00
  0.00000000E+00  0.00000000E+00  0.00000000E+00
  0.00000000E+00  0.00000000E+00  0.00000000E+00
  0.00000000E+00  0.00000000E+00  0.00000000E+00
  0.00000000E+00  0.00000000E+00  0.00000000E+00
  0.00000000E+00  0.00000000E+00  0.00000000E+00
  0.00000000E+00  0.00000000E+00  0.00000000E+00
  0.00000000E+00  0.00000000E+00  0.00000000E+00
  0.00000000E+00  0.00000000E+00  0.00000000E+00
  0.00000000E+00  0.00000000E+00  0.00000000E+00
  0.00000000E+00  0.00000000E+00  0.00000000E+00
  0.00000000E+00  0.00000000E+00  0.00000000E+00
  0.00000000E+00  0.00000000E+00  0.00000000E+00
  0.00000000E+00  0.00000000E+00  0.00000000E+00
  0.00000000E+00  0.00000000E+00  0.00000000E+00
  0.00000000E+00  0.00000000E+00  0.00000000E+00
  0.00000000E+00  0.00000000E+00  0.00000000E+00
  0.00000000E+00  0.00000000E+00  0.00000000E+00
  0.00000000E+00  0.00000000E+00  0.00000000E+00
  0.00000000E+00  0.00000000E+00  0.00000000E+00
  0.00000000E+00  0.00000000E+00  0.00000000E+00
  0.00000000E+00  0.00000000E+00  0.00000000E+00
  0.00000000E+00  0.00000000E+00  0.00000000E+00
  0.00000000E+00  0.00000000E+00  0.00000000E+00
  0.00000000E+00  0.00000000E+00  0.00000000E+00
  0.00000000E+00  0.00000000E+00  0.00000000E+00
  0.00000000E+00  0.00000000E+00  0.00000000E+00
  0.00000000E+00  0.00000000E+00  0.00000000E+00
  0.00000000E+00  0.00000000E+00  0.00000000E+00
  0.00000000E+00  0.00000000E+00  0.00000000E+00
  0.00000000E+00  0.00000000E+00  0.00000000E+00
  0.00000000E+00  0.00000000E+00  0.00000000E+00
  0.00000000E+00  0.00000000E+00  0.00000000E+00
  0.00000000E+00  0.00000000E+00  0.00000000E+00
  0.00000000E+00  0.00000000E+00  0.00000000E+00
  0.00000000E+00  0.00000000E+00  0.00000000E+00
  0.00000000E+00  0.00000000E+00  0.00000000E+00
  0.00000000E+00  0.00000000E+00  0.00000000E+00
  0.00000000E+00  0.00000000E+00  0.00000000E+00
  0.00000000E+00  0.00000000E+00  0.00000000E+00
  0.00000000E+00  0.00000000E+00  0.00000000E+00
  0.00000000E+00  0.00000000E+00  0.00000000E+00
  0.00000000E+00  0.00000000E+00  0.00000000E+00
  0.00000000E+00  0.00000000E+00  0.00000000E+00
  0.00000000E+00  0.00000000E+00  0.00000000E+00
  0.00000000E+00  0.00000000E+00  0.00000000E+00
  0.00000000E+00  0.00000000E+00  0.00000000E+00
  0.00000000E+00  0.00000000E+00  0.00000000E+00
  0.00000000E+00  0.00000000E+00  0.00000000E+00
  0.00000000E+00  0.00000000E+00  0.00000000E+00
  0.00000000E+00  0.00000000E+00  0.00000000E+00
  0.00000000E+00  0.00000000E+00  0.00000000E+00
  0.00000000E+00  0.00000000E+00  0.00000000E+00
  0.00000000E+00  0.00000000E+00  0.00000000E+00
  0.00000000E+00  0.00000000E+00  0.00000000E+00
  0.00000000E+00  0.00000000E+00  0.00000000E+00
  0.00000000E+00  0.00000000E+00  0.00000000E+00
  0.00000000E+00  0.00000000E+00  0.00000000E+00
  0.00000000E+00  0.00000000E+00  0.00000000E+00
  0.00000000E+00  0.00000000E+00  0.00000000E+00
  0.00000000E+00  0.00000000E+00  0.00000000E+00
  0.00000000E+00  0.00000000E+00  0.00000000E+00
  0.00000000E+00  0.00000000E+00  0.00000000E+00
  0.00000000E+00  0.00000000E+00  0.00000000E+00
  0.00000000E+00  0.00000000E+00  0.00000000E+00
  0.00000000E+00  0.00000000E+00  0.00000000E+00
  0.00000000E+00  0.00000000E+00  0.00000000E+00
  0.00000000E+00  0.00000000E+00  0.00000000E+00
  0.00000000E+00  0.00000000E+00  0.00000000E+00
  0.00000000E+00  0.00000000E+00  0.00000000E+00
  0.00000000E+00  0.00000000E+00  0.00000000E+00
  0.00000000E+00  0.00000000E+00  0.00000000E+00
  0.00000000E+00  0.00000000E+00  0.00000000E+00
  0.00000000E+00  0.00000000E+00  0.00000000E+00
  0.00000000E+00  0.00000000E+00  0.00000000E+00
  0.00000000E+00  0.00000000E+00  0.00000000E+00
  0.00000000E+00  0.00000000E+00  0.00000000E+00
  0.00000000E+00  0.00000000E+00  0.00000000E+00
  0.00000000E+00  0.00000000E+00  0.00000000E+00
  0.00000000E+00  0.00000000E+00  0.00000000E+00
  0.00000000E+00  0.00000000E+00  0.00000000E+00
  0.00000000E+00  0.00000000E+00  0.00000000E+00
  0.00000000E+00  0.00000000E+00  0.00000000E+00
  0.00000000E+00  0.00000000E+00  0.00000000E+00
  0.00000000E+00  0.00000000E+00  0.00000000E+00
  0.00000000E+00  0.00000000E+00  0.00000000E+00
  0.00000000E+00  0.00000000E+00  0.00000000E+00
  0.00000000E+00  0.00000000E+00  0.00000000E+00
  0.00000000E+00  0.00000000E+00  0.00000000E+00
  0.00000000E+00  0.00000000E+00  0.00000000E+00
  0.00000000E+00  0.00000000E+00  0.00000000E+00
  0.00000000E+00  0.00000000E+00  0.00000000E+00
  0.00000000E+00  0.00000000E+00  0.00000000E+00
  0.00000000E+00  0.00000000E+00  0.00000000E+00
  0.00000000E+00  0.00000000E+00  0.00000000E+00
  0.00000000E+00  0.00000000E+00  0.00000000E+00
  0.00000000E+00  0.00000000E+00  0.00000000E+00
  0.00000000E+00  0.00000000E+00  0.00000000E+00
  0.00000000E+00  0.00000000E+00  0.00000000E+00
  0.00000000E+00  0.00000000E+00  0.00000000E+00
  0.00000000E+00  0.00000000E+00  0.00000000E+00
  0.00000000E+00  0.00000000E+00  0.00000000E+00
  0.00000000E+00  0.00000000E+00  0.00000000E+00
  0.00000000E+00  0.00000000E+00  0.00000000E+00
  0.00000000E+00  0.00000000E+00  0.00000000E+00
  0.00000000E+00  0.00000000E+00  0.00000000E+00
  0.00000000E+00  0.00000000E+00  0.00000000E+00
  0.00000000E+00  0.00000000E+00  0.00000000E+00
  0.00000000E+00  0.00000000E+00  0.00000000E+00
  0.00000000E+00  0.00000000E+00  0.00000000E+00
  0.00000000E+00  0.00000000E+00  0.00000000E+00
  0.00000000E+00  0.00000000E+00  0.00000000E+00
  0.00000000E+00  0.00000000E+00  0.00000000E+00
  0.00000000E+00  0.00000000E+00  0.00000000E+00
  0.00000000E+00  0.00000000E+00  0.00000000E+00
  0.00000000E+00  0.00000000E+00  0.00000000E+00
  0.00000000E+00  0.00000000E+00  0.00000000E+00
  0.00000000E+00  0.00000000E+00  0.00000000E+00
  0.00000000E+00  0.00000000E+00  0.00000000E+00
  0.00000000E+00  0.00000000E+00  0.00000000E+00
  0.00000000E+00  0.00000000E+00  0.00000000E+00
  0.00000000E+00  0.00000000E+00  0.00000000E+00
  0.00000000E+00  0.00000000E+00  0.00000000E+00
  0.00000000E+00  0.00000000E+00  0.00000000E+00
  0.00000000E+00  0.00000000E+00  0.00000000E+00
  0.00000000E+00  0.00000000E+00  0.00000000E+00
  0.00000000E+00  0.00000000E+00  0.00000000E+00
  0.00000000E+00  0.00000000E+00  0.00000000E+00
  0.00000000E+00  0.00000000E+00  0.00000000E+00
  0.00000000E+00  0.00000000E+00  0.00000000E+00
  0.00000000E+00  0.00000000E+00  0.00000000E+00
  0.00000000E+00  0.00000000E+00  0.00000000E+00
  0.00000000E+00  0.00000000E+00  0.00000000E+00
  0.00000000E+00  0.00000000E+00  0.00000000E+00
  0.00000000E+00  0.00000000E+00  0.00000000E+00
  0.00000000E+00  0.00000000E+00  0.00000000E+00
  0.00000000E+00  0.00000000E+00  0.00000000E+00
  0.00000000E+00  0.00000000E+00  0.00000000E+00
  0.00000000E+00  0.00000000E+00  0.00000000E+00
  0.00000000E+00  0.00000000E+00  0.00000000E+00
  0.00000000E+00  0.00000000E+00  0.00000000E+00
  0.00000000E+00  0.00000000E+00  0.00000000E+00
  0.00000000E+00  0.00000000E+00  0.00000000E+00
  0.00000000E+00  0.00000000E+00  0.00000000E+00
  0.00000000E+00  0.00000000E+00  0.00000000E+00
  0.00000000E+00  0.00000000E+00  0.00000000E+00
  0.00000000E+00  0.00000000E+00  0.00000000E+00
  0.00000000E+00  0.00000000E+00  0.00000000E+00
  0.00000000E+00  0.00000000E+00  0.00000000E+00
  0.00000000E+00  0.00000000E+00  0.00000000E+00
  0.00000000E+00  0.00000000E+00  0.00000000E+00
  0.00000000E+00  0.00000000E+00  0.00000000E+00
  0.00000000E+00  0.00000000E+00  0.00000000E+00
  0.00000000E+00  0.00000000E+00  0.00000000E+00
  0.00000000E+00  0.00000000E+00  0.00000000E+00
  0.00000000E+00  0.00000000E+00  0.00000000E+00
  0.00000000E+00  0.00000000E+00  0.00000000E+00
  0.00000000E+00  0.00000000E+00  0.00000000E+00
  0.00000000E+00  0.00000000E+00  0.00000000E+00
  0.00000000E+00  0.00000000E+00  0.00000000E+00
  0.00000000E+00  0.00000000E+00  0.00000000E+00
  0.00000000E+00  0.00000000E+00  0.00000000E+00
  0.00000000E+00  0.00000000E+00  0.00000000E+00
  0.00000000E+00  0.00000000E+00  0.00000000E+00
  0.00000000E+00  0.00000000E+00  0.00000000E+00
  0.00000000E+00  0.00000000E+00  0.00000000E+00
  0.00000000E+00  0.00000000E+00  0.00000000E+00
  0.00000000E+00  0.00000000E+00  0.00000000E+00
  0.00000000E+00  0.00000000E+00  0.00000000E+00
  0.00000000E+00  0.00000000E+00  0.00000000E+00
  0.00000000E+00  0.00000000E+00  0.00000000E+00
  0.00000000E+00  0.00000000E+00  0.00000000E+00
  0.00000000E+00  0.00000000E+00  0.00000000E+00
  0.00000000E+00  0.00000000E+00  0.00000000E+00
  0.00000000E+00  0.00000000E+00  0.00000000E+00
  0.00000000E+00  0.00000000E+00  0.00000000E+00
  0.00000000E+00  0.00000000E+00  0.00000000E+00
  0.00000000E+00  0.00000000E+00  0.00000000E+00
  0.00000000E+00  0.00000000E+00  0.00000000E+00
  0.00000000E+00  0.00000000E+00  0.00000000E+00
  0.00000000E+00  0.00000000E+00  0.00000000E+00
  0.00000000E+00  0.00000000E+00  0.00000000E+00
  0.00000000E+00  0.00000000E+00  0.00000000E+00
  0.00000000E+00  0.00000000E+00  0.00000000E+00
