Ti  O                                   
   1.00000000000000     
    13.0160748915413169    0.0000000000000000    0.0000000000000000
     0.0000000000000000   11.8443707738385253    0.0000000000000000
     0.0000000000000000    0.0000000000000000   13.0160748915413151
   Ti   O 
    64   127
Direct
  0.2495392310295443  0.1250286709308241  0.1088945504888343
  0.9999998119825833  0.0000030768514137  0.1089113240478667
  0.9999967052621130  0.1250431223674866  0.3589305580841113
  0.2502148438257024  0.0000082472912268  0.3589606080908752
  0.2500043539548216  0.1249637252103781  0.6089128185715325
  0.0000016217030705  0.9999984451412800  0.6090918207866522
  0.9999999818743248  0.1250286858283047  0.8587339546280433
  0.2500660964118353  0.0000008580499724  0.8592220825123178
  0.2496973771981317  0.3750128518345335  0.1091859937886852
  0.0000002098604028  0.2501282154473046  0.1087718927684236
  0.9999771779568292  0.3751510623322716  0.3587673143342371
  0.2494974591569914  0.2497005248591293  0.3593746582603146
  0.2491759646922702  0.3753444235045436  0.6082680110520045
  0.0000003092116003  0.2497361395262061  0.6088772515587451
  0.9999990454788161  0.3750764643314355  0.8588011534782254
  0.2499791227005872  0.2500360535204322  0.8586959862402921
  0.2497006301315707  0.6249897563846005  0.1091848563913160
  0.9999994810246164  0.4999997166873840  0.1089375741486833
  0.9999753898403441  0.6248531983325094  0.3587741125051451
  0.2513622348217979  0.5000256499658917  0.3589800191840382
  0.2491813485184622  0.6246529618357073  0.6082674863337942
  0.9999998144603808  0.5000000290986790  0.6091442739851871
  0.9999994156021330  0.6249245797739391  0.8588002219319151
  0.2501348075263436  0.4999995907997672  0.8592706219069157
  0.2495389429691457  0.8749697385442161  0.1088936805334200
  0.9999993319499367  0.7498711874331718  0.1087687412241110
  0.9999971122337712  0.8749517320183031  0.3588949959944401
  0.2495166370658879  0.7503432338813028  0.3593659443510475
  0.2500097326928312  0.8750339349119614  0.6089135848697111
  0.0000029779176671  0.7502679987985417  0.6088737507466888
  0.9999999488463658  0.8749705611449201  0.8587324078007512
  0.2499773631465345  0.7499654299209624  0.8586899066137121
  0.7504600906638430  0.1250279429126095  0.1088962780835701
  0.5000009151109950  0.0000024243569499  0.1074223573299946
  0.4999800740119227  0.1197097932738487  0.3612262143119622
  0.7497765286947171  0.9999985383080201  0.3589593444018533
  0.7499888592434232  0.1249642388003878  0.6089119384448693
  0.5000012856268086  0.9999965828571860  0.6097585652662758
  0.4999996795966695  0.1231912987368418  0.8554714701854138
  0.7499346137169738  0.0000007681921446  0.8592218656928594
  0.7503019590989268  0.3750140763759902  0.1091855014997734
  0.5000007801592758  0.2485325843582942  0.1025452866886525
  0.4999812819787977  0.3591684052385986  0.3428738980190715
  0.7504854031624362  0.2496557196356264  0.3593703931867154
  0.7508133362218530  0.3753477816153108  0.6082763338273764
  0.4999947538178304  0.2510480881812498  0.6053904925884623
  0.5000003659288339  0.3706565688519774  0.8628535798971342
  0.7500226664231207  0.2500370663775158  0.8586930974706348
  0.7502992229109324  0.6249874984836552  0.1091875704685776
  0.5000005610889033  0.5000046986608808  0.1076979642190565
  0.4999971578648612  0.6408082456304456  0.3428376724043858
  0.7485937864071204  0.4999949376235051  0.3590034314923898
  0.7508267252795449  0.6246594089936224  0.6082733978375217
  0.5000035895476245  0.4999976207488999  0.6296766406421881
  0.5000008620676084  0.6293217653633434  0.8628562431447051
  0.7498668964732715  0.5000001125168154  0.8592707470841532
  0.7504614296097216  0.8749715311672475  0.1088975081907222
  0.5000000627969499  0.7514658609439593  0.1025313827514651
  0.5000046807841869  0.8802957789193897  0.3612079748897585
  0.7504909374509836  0.7503135786727952  0.3593697472360660
  0.7499921668484859  0.8750365443371422  0.6089141077820628
  0.5000004706867998  0.7489233145603222  0.6053180089998520
  0.5000002527033871  0.8767303683954069  0.8553793976158275
  0.7500238782401070  0.7499634259476338  0.8586907550847585
  0.0979376870758983  0.1250550829085526  0.1089672761666591
  0.4022613266191826  0.1249194800739133  0.1071346177171506
  0.2499893223567113  0.0000000892816487  0.0107728004847232
  0.2503633396949070  0.0000013966409966  0.2067073684249650
  0.3483564523802656  0.1245848601921367  0.3593744145048277
  0.1525592330420196  0.1256176670400961  0.3592051976752444
  0.9999990196548225  0.0000028256662858  0.2612154427446285
  0.9999973278036478  0.9999988497871897  0.4567592009206365
  0.0980565436953853  0.1251551517230283  0.6090430029389324
  0.4027858133181468  0.1262595383134837  0.6074777799023465
  0.2502987585785306  0.0000018814316576  0.5111183264523618
  0.2511143831228750  0.0000027574818233  0.7063942285493141
  0.3484788728771591  0.1251985787389671  0.8580197486098058
  0.1525454559762522  0.1252317604926176  0.8583421298134226
  0.0000027131799101  0.9999997848802025  0.7609217544057714
  0.0000019053593121  0.9999998410084530  0.9566008850005616
  0.0979625351159683  0.3750024188916115  0.1091531645492054
  0.4028253263301877  0.3747709591396386  0.1113033684308462
  0.2504717384918962  0.2502962376251077  0.0111237954235861
  0.2511472462519109  0.2499847427877668  0.2072279376526183
  0.3514483457407067  0.3763539709914383  0.3615218088573471
  0.1533487983888051  0.3749183892675489  0.3585063787225238
  0.9999980207746120  0.2500209938481035  0.2611322772855047
  0.9999979919126076  0.2502819511585699  0.4566938129850371
  0.0979463593924734  0.3750651096554662  0.6091407842793402
  0.4036754466973775  0.3797743067387174  0.6027300916480698
  0.2502281264162676  0.2502029296705288  0.5109648184438385
  0.2519163170560930  0.2510353932479319  0.7062956453387272
  0.3488079738413603  0.3751977682209500  0.8599733529594005
  0.1525539934326758  0.3751160349939653  0.8586195434782127
  0.0000026808945321  0.2500859435915928  0.7610036281779884
  0.0000017794803568  0.2499904713078607  0.9566188258438402
  0.0979599611393738  0.6250009773217471  0.1091525667249584
  0.4028284689075790  0.6252325928985201  0.1112949576533282
  0.2506856659840793  0.4999980005727949  0.0115124435120677
  0.2506744699961700  0.5000041608164665  0.2072837438985999
  0.3514535051428851  0.6236549741284136  0.3615245486025032
  0.1533556367596489  0.6250910908789606  0.3585043538634309
  0.9999946813034910  0.5000006637940189  0.2611858572713714
  0.9999952775135270  0.5000007572505467  0.4565813996433405
  0.0979456083298018  0.6249357863592806  0.6091453039897914
  0.4036792176771229  0.6202288863164540  0.6027221771350426
  0.2479587635978504  0.5000010898589053  0.5107000554190009
  0.2519267160430374  0.5000009917536943  0.7067037117147095
  0.3488075886733597  0.6248041403887683  0.8599805545220462
  0.1525535624088405  0.6248871415498769  0.8586197663490225
  0.0000029069533127  0.5000000213354383  0.7610068928464813
  0.0000031815872745  0.5000013714553546  0.9567352101405433
  0.0979368123384674  0.8749438830102676  0.1089688071489334
  0.4022625960409911  0.8750783454977764  0.1071395258786438
  0.2504752848619205  0.7497105028316042  0.0111170614968472
  0.2511526063889349  0.7500174794457095  0.2072259093477129
  0.3483646226579893  0.8754222710083539  0.3593668510960342
  0.1525629910267270  0.8743877237490949  0.3592008862509815
  0.9999943803974247  0.7499792034751493  0.2611292153902767
  0.9999941500497087  0.7497233221515032  0.4566918776054081
  0.0980561624526999  0.8748464291587297  0.6090437589854005
  0.4027922780506685  0.8737379553853302  0.6074842147313149
  0.2502347379260144  0.7498029159528343  0.5109648494902217
  0.2519166046649559  0.7489653366138924  0.7062930096633053
  0.3484825586921687  0.8748073565286560  0.8580025996045961
  0.1525460997150105  0.8747689691947613  0.8583451726264286
  0.0000018641768591  0.7499149605564455  0.7610042361289118
  0.0000021991947818  0.7500095789127883  0.9566198287821805
  0.5977422157309178  0.1249182598729632  0.1071358500336714
  0.9020657510329784  0.1250556709254198  0.1089706099351702
  0.7500144221084142  0.9999990519731270  0.0107753044007026
  0.7496388125683922  0.0000006010657714  0.2067081548032945
  0.8474347648464544  0.1256196807075511  0.3592025529495686
  0.6516340345261682  0.1245771341010524  0.3593779211313120
  0.4999988499946397  0.0000040711943825  0.2601114669631386
  0.4999987701507891  0.9999899941020800  0.4585411707888483
  0.5972086930201073  0.1262618325917870  0.6074785705088601
  0.9019472525760079  0.1251553864294621  0.6090432165535447
  0.7497002739544243  0.9999988847464820  0.5111181750092939
  0.7488880418010169  0.0000017545811417  0.7063928061295428
  0.8474608191383410  0.1252311790336407  0.8583411973714306
  0.6515262212309949  0.1252000215557345  0.8580209959199294
  0.5000031448054258  0.0000057139816505  0.7585436149710318
  0.5000025847762757  0.9999858609697156  0.9547283287161719
  0.5971778631764266  0.3747731307020388  0.1113019036548550
  0.9020404359925749  0.3750027866004473  0.1091544844660888
  0.7495361897835267  0.2502965098021761  0.0111241928139307
  0.7488482713217479  0.2499855334744296  0.2072288679390439
  0.8466394334761418  0.3749136936174011  0.3585094069540560
  0.6485442123399920  0.3763540299760848  0.3615305339641282
  0.4999989510147742  0.2430414350375187  0.2563627283470282
  0.4999971444190336  0.2513216357393588  0.4535716284962703
  0.5963229458947694  0.3797711067354328  0.6027272602600249
  0.9020559688140608  0.3750643417859720  0.6091394110410562
  0.7497666215569438  0.2502016652070012  0.5109635409089819
  0.7480863002135578  0.2510351608738830  0.7062938533410019
  0.8474530246677716  0.3751183766818826  0.8586173862733801
  0.6512016595787173  0.3751991198468403  0.8599768389832079
  0.5000003265895145  0.2528608080122794  0.7594233914695891
  0.5000039763240878  0.2485061039642105  0.9561273378932711
  0.5971778796780782  0.6252297923563503  0.1112946203117957
  0.9020420170027279  0.6249990858466177  0.1091532845500751
  0.7493246399936524  0.4999995007899400  0.0115115500789145
  0.7493262517962407  0.4999999963868120  0.2072875738576982
  0.8466436953073568  0.6250800544996622  0.3585081444700648
  0.6485484729627302  0.6236518491115532  0.3615303298874721
  0.5000008817134542  0.4999985628475727  0.2716031679280917
  0.5963273326850569  0.6202306913305904  0.6027195190264436
  0.9020556828468713  0.6249358244932353  0.6091384925084924
  0.7520380920320164  0.5000006769664225  0.5106965484947992
  0.7480828948639626  0.5000039419891493  0.7067001319211883
  0.8474529871802758  0.6248830779028083  0.8586165515081632
  0.6512027444762012  0.6248027513055447  0.8599782648388086
  0.5000219392769196  0.5000040461023616  0.7664787039492893
  0.5000020445039297  0.5000009554456355  0.9599357982470735
  0.5977419486639164  0.8750789212170957  0.1071415725649416
  0.9020664525417033  0.8749446167122130  0.1089709186965990
  0.7495320126515637  0.7497070589883705  0.0111199562386588
  0.7488550899732900  0.7500141070556197  0.2072291981594958
  0.8474393520172256  0.8743864850072214  0.3592014060241624
  0.6516364312096883  0.8754121665942662  0.3593667048188962
  0.5000005816014976  0.7569521850938941  0.2563442475754556
  0.4999982741149651  0.7486846277113628  0.4535666692143963
  0.5972109456399934  0.8737373301390861  0.6074805716454321
  0.9019449092275664  0.8748458308668106  0.6090440441306129
  0.7497722997047518  0.7498018005057148  0.5109616658155431
  0.7480871504941362  0.7489637809683813  0.7062907953654403
  0.8474596286704710  0.8747687837116516  0.8583443189401194
  0.6515253430868171  0.8748032657831786  0.8580026592124526
  0.5000014319599870  0.7471325019934554  0.7594180786467390
  0.5000108638281020  0.7515027118423134  0.9561132519742799
 
  0.00000000E+00  0.00000000E+00  0.00000000E+00
  0.00000000E+00  0.00000000E+00  0.00000000E+00
  0.00000000E+00  0.00000000E+00  0.00000000E+00
  0.00000000E+00  0.00000000E+00  0.00000000E+00
  0.00000000E+00  0.00000000E+00  0.00000000E+00
  0.00000000E+00  0.00000000E+00  0.00000000E+00
  0.00000000E+00  0.00000000E+00  0.00000000E+00
  0.00000000E+00  0.00000000E+00  0.00000000E+00
  0.00000000E+00  0.00000000E+00  0.00000000E+00
  0.00000000E+00  0.00000000E+00  0.00000000E+00
  0.00000000E+00  0.00000000E+00  0.00000000E+00
  0.00000000E+00  0.00000000E+00  0.00000000E+00
  0.00000000E+00  0.00000000E+00  0.00000000E+00
  0.00000000E+00  0.00000000E+00  0.00000000E+00
  0.00000000E+00  0.00000000E+00  0.00000000E+00
  0.00000000E+00  0.00000000E+00  0.00000000E+00
  0.00000000E+00  0.00000000E+00  0.00000000E+00
  0.00000000E+00  0.00000000E+00  0.00000000E+00
  0.00000000E+00  0.00000000E+00  0.00000000E+00
  0.00000000E+00  0.00000000E+00  0.00000000E+00
  0.00000000E+00  0.00000000E+00  0.00000000E+00
  0.00000000E+00  0.00000000E+00  0.00000000E+00
  0.00000000E+00  0.00000000E+00  0.00000000E+00
  0.00000000E+00  0.00000000E+00  0.00000000E+00
  0.00000000E+00  0.00000000E+00  0.00000000E+00
  0.00000000E+00  0.00000000E+00  0.00000000E+00
  0.00000000E+00  0.00000000E+00  0.00000000E+00
  0.00000000E+00  0.00000000E+00  0.00000000E+00
  0.00000000E+00  0.00000000E+00  0.00000000E+00
  0.00000000E+00  0.00000000E+00  0.00000000E+00
  0.00000000E+00  0.00000000E+00  0.00000000E+00
  0.00000000E+00  0.00000000E+00  0.00000000E+00
  0.00000000E+00  0.00000000E+00  0.00000000E+00
  0.00000000E+00  0.00000000E+00  0.00000000E+00
  0.00000000E+00  0.00000000E+00  0.00000000E+00
  0.00000000E+00  0.00000000E+00  0.00000000E+00
  0.00000000E+00  0.00000000E+00  0.00000000E+00
  0.00000000E+00  0.00000000E+00  0.00000000E+00
  0.00000000E+00  0.00000000E+00  0.00000000E+00
  0.00000000E+00  0.00000000E+00  0.00000000E+00
  0.00000000E+00  0.00000000E+00  0.00000000E+00
  0.00000000E+00  0.00000000E+00  0.00000000E+00
  0.00000000E+00  0.00000000E+00  0.00000000E+00
  0.00000000E+00  0.00000000E+00  0.00000000E+00
  0.00000000E+00  0.00000000E+00  0.00000000E+00
  0.00000000E+00  0.00000000E+00  0.00000000E+00
  0.00000000E+00  0.00000000E+00  0.00000000E+00
  0.00000000E+00  0.00000000E+00  0.00000000E+00
  0.00000000E+00  0.00000000E+00  0.00000000E+00
  0.00000000E+00  0.00000000E+00  0.00000000E+00
  0.00000000E+00  0.00000000E+00  0.00000000E+00
  0.00000000E+00  0.00000000E+00  0.00000000E+00
  0.00000000E+00  0.00000000E+00  0.00000000E+00
  0.00000000E+00  0.00000000E+00  0.00000000E+00
  0.00000000E+00  0.00000000E+00  0.00000000E+00
  0.00000000E+00  0.00000000E+00  0.00000000E+00
  0.00000000E+00  0.00000000E+00  0.00000000E+00
  0.00000000E+00  0.00000000E+00  0.00000000E+00
  0.00000000E+00  0.00000000E+00  0.00000000E+00
  0.00000000E+00  0.00000000E+00  0.00000000E+00
  0.00000000E+00  0.00000000E+00  0.00000000E+00
  0.00000000E+00  0.00000000E+00  0.00000000E+00
  0.00000000E+00  0.00000000E+00  0.00000000E+00
  0.00000000E+00  0.00000000E+00  0.00000000E+00
  0.00000000E+00  0.00000000E+00  0.00000000E+00
  0.00000000E+00  0.00000000E+00  0.00000000E+00
  0.00000000E+00  0.00000000E+00  0.00000000E+00
  0.00000000E+00  0.00000000E+00  0.00000000E+00
  0.00000000E+00  0.00000000E+00  0.00000000E+00
  0.00000000E+00  0.00000000E+00  0.00000000E+00
  0.00000000E+00  0.00000000E+00  0.00000000E+00
  0.00000000E+00  0.00000000E+00  0.00000000E+00
  0.00000000E+00  0.00000000E+00  0.00000000E+00
  0.00000000E+00  0.00000000E+00  0.00000000E+00
  0.00000000E+00  0.00000000E+00  0.00000000E+00
  0.00000000E+00  0.00000000E+00  0.00000000E+00
  0.00000000E+00  0.00000000E+00  0.00000000E+00
  0.00000000E+00  0.00000000E+00  0.00000000E+00
  0.00000000E+00  0.00000000E+00  0.00000000E+00
  0.00000000E+00  0.00000000E+00  0.00000000E+00
  0.00000000E+00  0.00000000E+00  0.00000000E+00
  0.00000000E+00  0.00000000E+00  0.00000000E+00
  0.00000000E+00  0.00000000E+00  0.00000000E+00
  0.00000000E+00  0.00000000E+00  0.00000000E+00
  0.00000000E+00  0.00000000E+00  0.00000000E+00
  0.00000000E+00  0.00000000E+00  0.00000000E+00
  0.00000000E+00  0.00000000E+00  0.00000000E+00
  0.00000000E+00  0.00000000E+00  0.00000000E+00
  0.00000000E+00  0.00000000E+00  0.00000000E+00
  0.00000000E+00  0.00000000E+00  0.00000000E+00
  0.00000000E+00  0.00000000E+00  0.00000000E+00
  0.00000000E+00  0.00000000E+00  0.00000000E+00
  0.00000000E+00  0.00000000E+00  0.00000000E+00
  0.00000000E+00  0.00000000E+00  0.00000000E+00
  0.00000000E+00  0.00000000E+00  0.00000000E+00
  0.00000000E+00  0.00000000E+00  0.00000000E+00
  0.00000000E+00  0.00000000E+00  0.00000000E+00
  0.00000000E+00  0.00000000E+00  0.00000000E+00
  0.00000000E+00  0.00000000E+00  0.00000000E+00
  0.00000000E+00  0.00000000E+00  0.00000000E+00
  0.00000000E+00  0.00000000E+00  0.00000000E+00
  0.00000000E+00  0.00000000E+00  0.00000000E+00
  0.00000000E+00  0.00000000E+00  0.00000000E+00
  0.00000000E+00  0.00000000E+00  0.00000000E+00
  0.00000000E+00  0.00000000E+00  0.00000000E+00
  0.00000000E+00  0.00000000E+00  0.00000000E+00
  0.00000000E+00  0.00000000E+00  0.00000000E+00
  0.00000000E+00  0.00000000E+00  0.00000000E+00
  0.00000000E+00  0.00000000E+00  0.00000000E+00
  0.00000000E+00  0.00000000E+00  0.00000000E+00
  0.00000000E+00  0.00000000E+00  0.00000000E+00
  0.00000000E+00  0.00000000E+00  0.00000000E+00
  0.00000000E+00  0.00000000E+00  0.00000000E+00
  0.00000000E+00  0.00000000E+00  0.00000000E+00
  0.00000000E+00  0.00000000E+00  0.00000000E+00
  0.00000000E+00  0.00000000E+00  0.00000000E+00
  0.00000000E+00  0.00000000E+00  0.00000000E+00
  0.00000000E+00  0.00000000E+00  0.00000000E+00
  0.00000000E+00  0.00000000E+00  0.00000000E+00
  0.00000000E+00  0.00000000E+00  0.00000000E+00
  0.00000000E+00  0.00000000E+00  0.00000000E+00
  0.00000000E+00  0.00000000E+00  0.00000000E+00
  0.00000000E+00  0.00000000E+00  0.00000000E+00
  0.00000000E+00  0.00000000E+00  0.00000000E+00
  0.00000000E+00  0.00000000E+00  0.00000000E+00
  0.00000000E+00  0.00000000E+00  0.00000000E+00
  0.00000000E+00  0.00000000E+00  0.00000000E+00
  0.00000000E+00  0.00000000E+00  0.00000000E+00
  0.00000000E+00  0.00000000E+00  0.00000000E+00
  0.00000000E+00  0.00000000E+00  0.00000000E+00
  0.00000000E+00  0.00000000E+00  0.00000000E+00
  0.00000000E+00  0.00000000E+00  0.00000000E+00
  0.00000000E+00  0.00000000E+00  0.00000000E+00
  0.00000000E+00  0.00000000E+00  0.00000000E+00
  0.00000000E+00  0.00000000E+00  0.00000000E+00
  0.00000000E+00  0.00000000E+00  0.00000000E+00
  0.00000000E+00  0.00000000E+00  0.00000000E+00
  0.00000000E+00  0.00000000E+00  0.00000000E+00
  0.00000000E+00  0.00000000E+00  0.00000000E+00
  0.00000000E+00  0.00000000E+00  0.00000000E+00
  0.00000000E+00  0.00000000E+00  0.00000000E+00
  0.00000000E+00  0.00000000E+00  0.00000000E+00
  0.00000000E+00  0.00000000E+00  0.00000000E+00
  0.00000000E+00  0.00000000E+00  0.00000000E+00
  0.00000000E+00  0.00000000E+00  0.00000000E+00
  0.00000000E+00  0.00000000E+00  0.00000000E+00
  0.00000000E+00  0.00000000E+00  0.00000000E+00
  0.00000000E+00  0.00000000E+00  0.00000000E+00
  0.00000000E+00  0.00000000E+00  0.00000000E+00
  0.00000000E+00  0.00000000E+00  0.00000000E+00
  0.00000000E+00  0.00000000E+00  0.00000000E+00
  0.00000000E+00  0.00000000E+00  0.00000000E+00
  0.00000000E+00  0.00000000E+00  0.00000000E+00
  0.00000000E+00  0.00000000E+00  0.00000000E+00
  0.00000000E+00  0.00000000E+00  0.00000000E+00
  0.00000000E+00  0.00000000E+00  0.00000000E+00
  0.00000000E+00  0.00000000E+00  0.00000000E+00
  0.00000000E+00  0.00000000E+00  0.00000000E+00
  0.00000000E+00  0.00000000E+00  0.00000000E+00
  0.00000000E+00  0.00000000E+00  0.00000000E+00
  0.00000000E+00  0.00000000E+00  0.00000000E+00
  0.00000000E+00  0.00000000E+00  0.00000000E+00
  0.00000000E+00  0.00000000E+00  0.00000000E+00
  0.00000000E+00  0.00000000E+00  0.00000000E+00
  0.00000000E+00  0.00000000E+00  0.00000000E+00
  0.00000000E+00  0.00000000E+00  0.00000000E+00
  0.00000000E+00  0.00000000E+00  0.00000000E+00
  0.00000000E+00  0.00000000E+00  0.00000000E+00
  0.00000000E+00  0.00000000E+00  0.00000000E+00
  0.00000000E+00  0.00000000E+00  0.00000000E+00
  0.00000000E+00  0.00000000E+00  0.00000000E+00
  0.00000000E+00  0.00000000E+00  0.00000000E+00
  0.00000000E+00  0.00000000E+00  0.00000000E+00
  0.00000000E+00  0.00000000E+00  0.00000000E+00
  0.00000000E+00  0.00000000E+00  0.00000000E+00
  0.00000000E+00  0.00000000E+00  0.00000000E+00
  0.00000000E+00  0.00000000E+00  0.00000000E+00
  0.00000000E+00  0.00000000E+00  0.00000000E+00
  0.00000000E+00  0.00000000E+00  0.00000000E+00
  0.00000000E+00  0.00000000E+00  0.00000000E+00
  0.00000000E+00  0.00000000E+00  0.00000000E+00
  0.00000000E+00  0.00000000E+00  0.00000000E+00
  0.00000000E+00  0.00000000E+00  0.00000000E+00
  0.00000000E+00  0.00000000E+00  0.00000000E+00
  0.00000000E+00  0.00000000E+00  0.00000000E+00
  0.00000000E+00  0.00000000E+00  0.00000000E+00
  0.00000000E+00  0.00000000E+00  0.00000000E+00
  0.00000000E+00  0.00000000E+00  0.00000000E+00
  0.00000000E+00  0.00000000E+00  0.00000000E+00
  0.00000000E+00  0.00000000E+00  0.00000000E+00
  0.00000000E+00  0.00000000E+00  0.00000000E+00
