Ti  O                                   
   1.00000000000000     
    13.0160748915413169    0.0000000000000000    0.0000000000000000
     0.0000000000000000   11.8443707738385253    0.0000000000000000
     0.0000000000000000    0.0000000000000000   13.0160748915413151
   Ti   O 
    64   127
Direct
  0.2495392310295436  0.1250286709308238  0.1088945504888357
 -0.0000001880174144  0.0000030768514136  0.1089113240478650
 -0.0000032947378903  0.1250431223674844  0.3589305580841136
  0.2502148438257016  0.0000082472912296  0.3589606080908749
  0.2500043539548186  0.1249637252103747  0.6089128185715302
  0.0000016217030705 -0.0000015548587188  0.6090918207866527
 -0.0000000181256736  0.1250286858283064  0.8587339546280431
  0.2500660964118321  0.0000008580499706  0.8592220825123214
  0.2496973771981311  0.3750128518345326  0.1091859937886881
  0.0000002098604027  0.2501282154473011  0.1087718927684238
 -0.0000228220431714  0.3751510623322740  0.3587673143342406
  0.2494974591569948  0.2497005248591290  0.3593746582603120
  0.2491759646922706  0.3753444235045407  0.6082680110520027
  0.0000003092116025  0.2497361395262090  0.6088772515587459
 -0.0000009545211873  0.3750764643314370  0.8588011534782257
  0.2499791227005875  0.2500360535204293  0.8586959862402916
  0.2497006301315720  0.6249897563845980  0.1091848563913168
 -0.0000005189753823  0.4999997166873866  0.1089375741486830
 -0.0000246101596570  0.6248531983325112  0.3587741125051445
  0.2513622348217957  0.5000256499658895  0.3589800191840357
  0.2491813485184650  0.6246529618357044  0.6082674863337976
 -0.0000001855396222  0.5000000290986786  0.6091442739851871
 -0.0000005843978652  0.6249245797739407  0.8588002219319155
  0.2501348075263430  0.4999995907997679  0.8592706219069127
  0.2495389429691492  0.8749697385442186  0.1088936805334221
 -0.0000006680500630  0.7498711874331748  0.1087687412241113
 -0.0000028877662323  0.8749517320183012  0.3588949959944366
  0.2495166370658881  0.7503432338813054  0.3593659443510456
  0.2500097326928278  0.8750339349119581  0.6089135848697085
  0.0000029779176688  0.7502679987985408  0.6088737507466858
 -0.0000000511536376  0.8749705611449168  0.8587324078007507
  0.2499773631465377  0.7499654299209656  0.8586899066137115
  0.7504600906638452  0.1250279429126128  0.1088962780835733
  0.5000009151109959  0.0000024243569477  0.1074223573299934
  0.4999800740119226  0.1197097932738497  0.3612262143119597
  0.7497765286947189 -0.0000014616919795  0.3589593444018517
  0.7499888592434207  0.1249642388003904  0.6089119384448707
  0.5000012856268101 -0.0000034171428168  0.6097585652662768
  0.4999996795966707  0.1231912987368384  0.8554714701854153
  0.7499346137169771  0.0000007681921433  0.8592218656928591
  0.7503019590989264  0.3750140763759903  0.1091855014997756
  0.5000007801592729  0.2485325843582926  0.1025452866886515
  0.4999812819787983  0.3591684052385991  0.3428738980190685
  0.7504854031624367  0.2496557196356252  0.3593703931867152
  0.7508133362218533  0.3753477816153127  0.6082763338273780
  0.4999947538178336  0.2510480881812470  0.6053904925884646
  0.5000003659288335  0.3706565688519802  0.8628535798971365
  0.7500226664231204  0.2500370663775142  0.8586930974706337
  0.7502992229109317  0.6249874984836522  0.1091875704685787
  0.5000005610889048  0.5000046986608780  0.1076979642190561
  0.4999971578648603  0.6408082456304423  0.3428376724043847
  0.7485937864071179  0.4999949376235019  0.3590034314923910
  0.7508267252795445  0.6246594089936207  0.6082733978375243
  0.5000035895476220  0.4999976207489034  0.6296766406421911
  0.5000008620676057  0.6293217653633439  0.8628562431447018
  0.7498668964732706  0.5000001125168122  0.8592707470841524
  0.7504614296097195  0.8749715311672441  0.1088975081907215
  0.5000000627969498  0.7514658609439568  0.1025313827514656
  0.5000046807841881  0.8802957789193903  0.3612079748897605
  0.7504909374509831  0.7503135786727960  0.3593697472360693
  0.7499921668484895  0.8750365443371400  0.6089141077820652
  0.5000004706868000  0.7489233145603229  0.6053180089998531
  0.5000002527033857  0.8767303683954055  0.8553793976158282
  0.7500238782401053  0.7499634259476331  0.8586907550847578
  0.0979376870758986  0.1250550829085504  0.1089672761666614
  0.4022613266191850  0.1249194800739136  0.1071346177171536
  0.2499893223567078  0.0000000892816517  0.0107728004847233
  0.2503633396949043  0.0000013966409974  0.2067073684249632
  0.3483564523802677  0.1245848601921385  0.3593744145048294
  0.1525592330420195  0.1256176670400964  0.3592051976752439
 -0.0000009803451809  0.0000028256662893  0.2612154427446315
 -0.0000026721963490 -0.0000011502128098  0.4567592009206396
  0.0980565436953840  0.1251551517230255  0.6090430029389341
  0.4027858133181482  0.1262595383134869  0.6074777799023459
  0.2502987585785325  0.0000018814316580  0.5111183264523600
  0.2511143831228723  0.0000027574818258  0.7063942285493151
  0.3484788728771596  0.1251985787389649  0.8580197486098072
  0.1525454559762552  0.1252317604926182  0.8583421298134201
  0.0000027131799107 -0.0000002151197990  0.7609217544057737
  0.0000019053593115 -0.0000001589915484  0.9566008850005594
  0.0979625351159698  0.3750024188916125  0.1091531645492046
  0.4028253263301850  0.3747709591396378  0.1113033684308454
  0.2504717384918976  0.2502962376251103  0.0111237954235842
  0.2511472462519133  0.2499847427877693  0.2072279376526165
  0.3514483457407066  0.3763539709914400  0.3615218088573463
  0.1533487983888074  0.3749183892675482  0.3585063787225258
 -0.0000019792253905  0.2500209938481058  0.2611322772855056
 -0.0000020080873954  0.2502819511585700  0.4566938129850406
  0.0979463593924750  0.3750651096554654  0.6091407842793388
  0.4036754466973758  0.3797743067387167  0.6027300916480678
  0.2502281264162680  0.2502029296705260  0.5109648184438372
  0.2519163170560908  0.2510353932479322  0.7062956453387303
  0.3488079738413594  0.3751977682209482  0.8599733529594006
  0.1525539934326774  0.3751160349939663  0.8586195434782110
  0.0000026808945336  0.2500859435915953  0.7610036281779914
  0.0000017794803583  0.2499904713078633  0.9566188258438373
  0.0979599611393766  0.6250009773217451  0.1091525667249577
  0.4028284689075784  0.6252325928985233  0.1112949576533266
  0.2506856659840792  0.4999980005727935  0.0115124435120664
  0.2506744699961678  0.5000041608164681  0.2072837438986023
  0.3514535051428859  0.6236549741284116  0.3615245486025014
  0.1533556367596471  0.6250910908789628  0.3585043538634299
 -0.0000053186965085  0.5000006637940219  0.2611858572713717
 -0.0000047224864695  0.5000007572505440  0.4565813996433436
  0.0979456083297984  0.6249357863592834  0.6091453039897906
  0.4036792176771209  0.6202288863164531  0.6027221771350429
  0.2479587635978472  0.5000010898589080  0.5107000554190008
  0.2519267160430383  0.5000009917536927  0.7067037117147119
  0.3488075886733589  0.6248041403887687  0.8599805545220438
  0.1525535624088437  0.6248871415498739  0.8586197663490235
  0.0000029069533158  0.5000000213354415  0.7610068928464782
  0.0000031815872744  0.5000013714553563  0.9567352101405416
  0.0979368123384649  0.8749438830102666  0.1089688071489335
  0.4022625960409913  0.8750783454977792  0.1071395258786465
  0.2504752848619220  0.7497105028316070  0.0111170614968463
  0.2511526063889353  0.7500174794457063  0.2072259093477131
  0.3483646226579878  0.8754222710083508  0.3593668510960309
  0.1525629910267274  0.8743877237490925  0.3592008862509811
 -0.0000056196025766  0.7499792034751505  0.2611292153902737
 -0.0000058499502913  0.7497233221514997  0.4566918776054071
  0.0980561624527025  0.8748464291587323  0.6090437589854003
  0.4027922780506708  0.8737379553853333  0.6074842147313183
  0.2502347379260111  0.7498029159528312  0.5109648494902225
  0.2519166046649590  0.7489653366138934  0.7062930096633060
  0.3484825586921693  0.8748073565286568  0.8580025996045991
  0.1525460997150092  0.8747689691947590  0.8583451726264260
  0.0000018641768578  0.7499149605564470  0.7610042361289138
  0.0000021991947821  0.7500095789127894  0.9566198287821800
  0.5977422157309173  0.1249182598729631  0.1071358500336711
  0.9020657510329788  0.1250556709254176  0.1089706099351704
  0.7500144221084148 -0.0000009480268698  0.0107753044007045
  0.7496388125683917  0.0000006010657717  0.2067081548032954
  0.8474347648464533  0.1256196807075498  0.3592025529495706
  0.6516340345261692  0.1245771341010558  0.3593779211313106
  0.4999988499946380  0.0000040711943841  0.2601114669631387
  0.4999987701507916 -0.0000100058979209  0.4585411707888504
  0.5972086930201062  0.1262618325917861  0.6074785705088633
  0.9019472525760088  0.1251553864294621  0.6090432165535419
  0.7497002739544250 -0.0000011152535169  0.5111181750092938
  0.7488880418010192  0.0000017545811411  0.7063928061295399
  0.8474608191383396  0.1252311790336412  0.8583411973714290
  0.6515262212309920  0.1252000215557363  0.8580209959199316
  0.5000031448054270  0.0000057139816495  0.7585436149710294
  0.5000025847762771 -0.0000141390302842  0.9547283287161686
  0.5971778631764251  0.3747731307020400  0.1113019036548516
  0.9020404359925750  0.3750027866004451  0.1091544844660881
  0.7495361897835262  0.2502965098021783  0.0111241928139293
  0.7488482713217450  0.2499855334744280  0.2072288679390423
  0.8466394334761446  0.3749136936173992  0.3585094069540543
  0.6485442123399945  0.3763540299760814  0.3615305339641275
  0.4999989510147766  0.2430414350375175  0.2563627283470281
  0.4999971444190351  0.2513216357393616  0.4535716284962709
  0.5963229458947678  0.3797711067354327  0.6027272602600225
  0.9020559688140587  0.3750643417859745  0.6091394110410554
  0.7497666215569464  0.2502016652070012  0.5109635409089831
  0.7480863002135606  0.2510351608738843  0.7062938533410014
  0.8474530246677707  0.3751183766818860  0.8586173862733825
  0.6512016595787208  0.3751991198468401  0.8599768389832109
  0.5000003265895128  0.2528608080122802  0.7594233914695886
  0.5000039763240857  0.2485061039642083  0.9561273378932680
  0.5971778796780816  0.6252297923563483  0.1112946203117965
  0.9020420170027272  0.6249990858466201  0.1091532845500725
  0.7493246399936547  0.4999995007899417  0.0115115500789118
  0.7493262517962421  0.4999999963868130  0.2072875738576962
  0.8466436953073582  0.6250800544996632  0.3585081444700638
  0.6485484729627269  0.6236518491115509  0.3615303298874696
  0.5000008817134517  0.4999985628475734  0.2716031679280920
  0.5963273326850574  0.6202306913305875  0.6027195190264465
  0.9020556828468713  0.6249358244932375  0.6091384925084892
  0.7520380920320198  0.5000006769664213  0.5106965484948021
  0.7480828948639633  0.5000039419891473  0.7067001319211906
  0.8474529871802741  0.6248830779028048  0.8586165515081663
  0.6512027444761986  0.6248027513055470  0.8599782648388051
  0.5000219392769218  0.5000040461023612  0.7664787039492880
  0.5000020445039278  0.5000009554456339  0.9599357982470749
  0.5977419486639161  0.8750789212170936  0.1071415725649410
  0.9020664525417033  0.8749446167122108  0.1089709186965995
  0.7495320126515612  0.7497070589883700  0.0111199562386591
  0.7488550899732916  0.7500141070556195  0.2072291981594970
  0.8474393520172261  0.8743864850072183  0.3592014060241637
  0.6516364312096906  0.8754121665942681  0.3593667048188960
  0.5000005816014947  0.7569521850938975  0.2563442475754561
  0.4999982741149654  0.7486846277113608  0.4535666692143952
  0.5972109456399950  0.8737373301390895  0.6074805716454300
  0.9019449092275647  0.8748458308668103  0.6090440441306113
  0.7497722997047525  0.7498018005057127  0.5109616658155420
  0.7480871504941393  0.7489637809683830  0.7062907953654383
  0.8474596286704690  0.8747687837116501  0.8583443189401190
  0.6515253430868140  0.8748032657831815  0.8580026592124506
  0.5000014319599844  0.7471325019934523  0.7594180786467396
  0.5000108638281032  0.7515027118423124  0.9561132519742767
 
  0.00000000E+00  0.00000000E+00  0.00000000E+00
  0.00000000E+00  0.00000000E+00  0.00000000E+00
  0.00000000E+00  0.00000000E+00  0.00000000E+00
  0.00000000E+00  0.00000000E+00  0.00000000E+00
  0.00000000E+00  0.00000000E+00  0.00000000E+00
  0.00000000E+00  0.00000000E+00  0.00000000E+00
  0.00000000E+00  0.00000000E+00  0.00000000E+00
  0.00000000E+00  0.00000000E+00  0.00000000E+00
  0.00000000E+00  0.00000000E+00  0.00000000E+00
  0.00000000E+00  0.00000000E+00  0.00000000E+00
  0.00000000E+00  0.00000000E+00  0.00000000E+00
  0.00000000E+00  0.00000000E+00  0.00000000E+00
  0.00000000E+00  0.00000000E+00  0.00000000E+00
  0.00000000E+00  0.00000000E+00  0.00000000E+00
  0.00000000E+00  0.00000000E+00  0.00000000E+00
  0.00000000E+00  0.00000000E+00  0.00000000E+00
  0.00000000E+00  0.00000000E+00  0.00000000E+00
  0.00000000E+00  0.00000000E+00  0.00000000E+00
  0.00000000E+00  0.00000000E+00  0.00000000E+00
  0.00000000E+00  0.00000000E+00  0.00000000E+00
  0.00000000E+00  0.00000000E+00  0.00000000E+00
  0.00000000E+00  0.00000000E+00  0.00000000E+00
  0.00000000E+00  0.00000000E+00  0.00000000E+00
  0.00000000E+00  0.00000000E+00  0.00000000E+00
  0.00000000E+00  0.00000000E+00  0.00000000E+00
  0.00000000E+00  0.00000000E+00  0.00000000E+00
  0.00000000E+00  0.00000000E+00  0.00000000E+00
  0.00000000E+00  0.00000000E+00  0.00000000E+00
  0.00000000E+00  0.00000000E+00  0.00000000E+00
  0.00000000E+00  0.00000000E+00  0.00000000E+00
  0.00000000E+00  0.00000000E+00  0.00000000E+00
  0.00000000E+00  0.00000000E+00  0.00000000E+00
  0.00000000E+00  0.00000000E+00  0.00000000E+00
  0.00000000E+00  0.00000000E+00  0.00000000E+00
  0.00000000E+00  0.00000000E+00  0.00000000E+00
  0.00000000E+00  0.00000000E+00  0.00000000E+00
  0.00000000E+00  0.00000000E+00  0.00000000E+00
  0.00000000E+00  0.00000000E+00  0.00000000E+00
  0.00000000E+00  0.00000000E+00  0.00000000E+00
  0.00000000E+00  0.00000000E+00  0.00000000E+00
  0.00000000E+00  0.00000000E+00  0.00000000E+00
  0.00000000E+00  0.00000000E+00  0.00000000E+00
  0.00000000E+00  0.00000000E+00  0.00000000E+00
  0.00000000E+00  0.00000000E+00  0.00000000E+00
  0.00000000E+00  0.00000000E+00  0.00000000E+00
  0.00000000E+00  0.00000000E+00  0.00000000E+00
  0.00000000E+00  0.00000000E+00  0.00000000E+00
  0.00000000E+00  0.00000000E+00  0.00000000E+00
  0.00000000E+00  0.00000000E+00  0.00000000E+00
  0.00000000E+00  0.00000000E+00  0.00000000E+00
  0.00000000E+00  0.00000000E+00  0.00000000E+00
  0.00000000E+00  0.00000000E+00  0.00000000E+00
  0.00000000E+00  0.00000000E+00  0.00000000E+00
  0.00000000E+00  0.00000000E+00  0.00000000E+00
  0.00000000E+00  0.00000000E+00  0.00000000E+00
  0.00000000E+00  0.00000000E+00  0.00000000E+00
  0.00000000E+00  0.00000000E+00  0.00000000E+00
  0.00000000E+00  0.00000000E+00  0.00000000E+00
  0.00000000E+00  0.00000000E+00  0.00000000E+00
  0.00000000E+00  0.00000000E+00  0.00000000E+00
  0.00000000E+00  0.00000000E+00  0.00000000E+00
  0.00000000E+00  0.00000000E+00  0.00000000E+00
  0.00000000E+00  0.00000000E+00  0.00000000E+00
  0.00000000E+00  0.00000000E+00  0.00000000E+00
  0.00000000E+00  0.00000000E+00  0.00000000E+00
  0.00000000E+00  0.00000000E+00  0.00000000E+00
  0.00000000E+00  0.00000000E+00  0.00000000E+00
  0.00000000E+00  0.00000000E+00  0.00000000E+00
  0.00000000E+00  0.00000000E+00  0.00000000E+00
  0.00000000E+00  0.00000000E+00  0.00000000E+00
  0.00000000E+00  0.00000000E+00  0.00000000E+00
  0.00000000E+00  0.00000000E+00  0.00000000E+00
  0.00000000E+00  0.00000000E+00  0.00000000E+00
  0.00000000E+00  0.00000000E+00  0.00000000E+00
  0.00000000E+00  0.00000000E+00  0.00000000E+00
  0.00000000E+00  0.00000000E+00  0.00000000E+00
  0.00000000E+00  0.00000000E+00  0.00000000E+00
  0.00000000E+00  0.00000000E+00  0.00000000E+00
  0.00000000E+00  0.00000000E+00  0.00000000E+00
  0.00000000E+00  0.00000000E+00  0.00000000E+00
  0.00000000E+00  0.00000000E+00  0.00000000E+00
  0.00000000E+00  0.00000000E+00  0.00000000E+00
  0.00000000E+00  0.00000000E+00  0.00000000E+00
  0.00000000E+00  0.00000000E+00  0.00000000E+00
  0.00000000E+00  0.00000000E+00  0.00000000E+00
  0.00000000E+00  0.00000000E+00  0.00000000E+00
  0.00000000E+00  0.00000000E+00  0.00000000E+00
  0.00000000E+00  0.00000000E+00  0.00000000E+00
  0.00000000E+00  0.00000000E+00  0.00000000E+00
  0.00000000E+00  0.00000000E+00  0.00000000E+00
  0.00000000E+00  0.00000000E+00  0.00000000E+00
  0.00000000E+00  0.00000000E+00  0.00000000E+00
  0.00000000E+00  0.00000000E+00  0.00000000E+00
  0.00000000E+00  0.00000000E+00  0.00000000E+00
  0.00000000E+00  0.00000000E+00  0.00000000E+00
  0.00000000E+00  0.00000000E+00  0.00000000E+00
  0.00000000E+00  0.00000000E+00  0.00000000E+00
  0.00000000E+00  0.00000000E+00  0.00000000E+00
  0.00000000E+00  0.00000000E+00  0.00000000E+00
  0.00000000E+00  0.00000000E+00  0.00000000E+00
  0.00000000E+00  0.00000000E+00  0.00000000E+00
  0.00000000E+00  0.00000000E+00  0.00000000E+00
  0.00000000E+00  0.00000000E+00  0.00000000E+00
  0.00000000E+00  0.00000000E+00  0.00000000E+00
  0.00000000E+00  0.00000000E+00  0.00000000E+00
  0.00000000E+00  0.00000000E+00  0.00000000E+00
  0.00000000E+00  0.00000000E+00  0.00000000E+00
  0.00000000E+00  0.00000000E+00  0.00000000E+00
  0.00000000E+00  0.00000000E+00  0.00000000E+00
  0.00000000E+00  0.00000000E+00  0.00000000E+00
  0.00000000E+00  0.00000000E+00  0.00000000E+00
  0.00000000E+00  0.00000000E+00  0.00000000E+00
  0.00000000E+00  0.00000000E+00  0.00000000E+00
  0.00000000E+00  0.00000000E+00  0.00000000E+00
  0.00000000E+00  0.00000000E+00  0.00000000E+00
  0.00000000E+00  0.00000000E+00  0.00000000E+00
  0.00000000E+00  0.00000000E+00  0.00000000E+00
  0.00000000E+00  0.00000000E+00  0.00000000E+00
  0.00000000E+00  0.00000000E+00  0.00000000E+00
  0.00000000E+00  0.00000000E+00  0.00000000E+00
  0.00000000E+00  0.00000000E+00  0.00000000E+00
  0.00000000E+00  0.00000000E+00  0.00000000E+00
  0.00000000E+00  0.00000000E+00  0.00000000E+00
  0.00000000E+00  0.00000000E+00  0.00000000E+00
  0.00000000E+00  0.00000000E+00  0.00000000E+00
  0.00000000E+00  0.00000000E+00  0.00000000E+00
  0.00000000E+00  0.00000000E+00  0.00000000E+00
  0.00000000E+00  0.00000000E+00  0.00000000E+00
  0.00000000E+00  0.00000000E+00  0.00000000E+00
  0.00000000E+00  0.00000000E+00  0.00000000E+00
  0.00000000E+00  0.00000000E+00  0.00000000E+00
  0.00000000E+00  0.00000000E+00  0.00000000E+00
  0.00000000E+00  0.00000000E+00  0.00000000E+00
  0.00000000E+00  0.00000000E+00  0.00000000E+00
  0.00000000E+00  0.00000000E+00  0.00000000E+00
  0.00000000E+00  0.00000000E+00  0.00000000E+00
  0.00000000E+00  0.00000000E+00  0.00000000E+00
  0.00000000E+00  0.00000000E+00  0.00000000E+00
  0.00000000E+00  0.00000000E+00  0.00000000E+00
  0.00000000E+00  0.00000000E+00  0.00000000E+00
  0.00000000E+00  0.00000000E+00  0.00000000E+00
  0.00000000E+00  0.00000000E+00  0.00000000E+00
  0.00000000E+00  0.00000000E+00  0.00000000E+00
  0.00000000E+00  0.00000000E+00  0.00000000E+00
  0.00000000E+00  0.00000000E+00  0.00000000E+00
  0.00000000E+00  0.00000000E+00  0.00000000E+00
  0.00000000E+00  0.00000000E+00  0.00000000E+00
  0.00000000E+00  0.00000000E+00  0.00000000E+00
  0.00000000E+00  0.00000000E+00  0.00000000E+00
  0.00000000E+00  0.00000000E+00  0.00000000E+00
  0.00000000E+00  0.00000000E+00  0.00000000E+00
  0.00000000E+00  0.00000000E+00  0.00000000E+00
  0.00000000E+00  0.00000000E+00  0.00000000E+00
  0.00000000E+00  0.00000000E+00  0.00000000E+00
  0.00000000E+00  0.00000000E+00  0.00000000E+00
  0.00000000E+00  0.00000000E+00  0.00000000E+00
  0.00000000E+00  0.00000000E+00  0.00000000E+00
  0.00000000E+00  0.00000000E+00  0.00000000E+00
  0.00000000E+00  0.00000000E+00  0.00000000E+00
  0.00000000E+00  0.00000000E+00  0.00000000E+00
  0.00000000E+00  0.00000000E+00  0.00000000E+00
  0.00000000E+00  0.00000000E+00  0.00000000E+00
  0.00000000E+00  0.00000000E+00  0.00000000E+00
  0.00000000E+00  0.00000000E+00  0.00000000E+00
  0.00000000E+00  0.00000000E+00  0.00000000E+00
  0.00000000E+00  0.00000000E+00  0.00000000E+00
  0.00000000E+00  0.00000000E+00  0.00000000E+00
  0.00000000E+00  0.00000000E+00  0.00000000E+00
  0.00000000E+00  0.00000000E+00  0.00000000E+00
  0.00000000E+00  0.00000000E+00  0.00000000E+00
  0.00000000E+00  0.00000000E+00  0.00000000E+00
  0.00000000E+00  0.00000000E+00  0.00000000E+00
  0.00000000E+00  0.00000000E+00  0.00000000E+00
  0.00000000E+00  0.00000000E+00  0.00000000E+00
  0.00000000E+00  0.00000000E+00  0.00000000E+00
  0.00000000E+00  0.00000000E+00  0.00000000E+00
  0.00000000E+00  0.00000000E+00  0.00000000E+00
  0.00000000E+00  0.00000000E+00  0.00000000E+00
  0.00000000E+00  0.00000000E+00  0.00000000E+00
  0.00000000E+00  0.00000000E+00  0.00000000E+00
  0.00000000E+00  0.00000000E+00  0.00000000E+00
  0.00000000E+00  0.00000000E+00  0.00000000E+00
  0.00000000E+00  0.00000000E+00  0.00000000E+00
  0.00000000E+00  0.00000000E+00  0.00000000E+00
  0.00000000E+00  0.00000000E+00  0.00000000E+00
  0.00000000E+00  0.00000000E+00  0.00000000E+00
  0.00000000E+00  0.00000000E+00  0.00000000E+00
  0.00000000E+00  0.00000000E+00  0.00000000E+00
  0.00000000E+00  0.00000000E+00  0.00000000E+00
  0.00000000E+00  0.00000000E+00  0.00000000E+00
  0.00000000E+00  0.00000000E+00  0.00000000E+00
