Ti2 O4                                  
   1.00000000000000     
     4.5531958268639769    0.0000000000000000    0.0000000000000000
     0.0000000000000000    4.5531958268639769    0.0000000000000000
     0.0000000000000000    0.0000000000000000    2.9217110833452482
   Ti   O 
     2     4
Direct
  0.5000000000000000  0.5000000000000000  0.5000000000000000
  0.0000000000000000 -0.0000000000000000 -0.0000000000000000
  0.1961500710301629  0.8038499289698373  0.5000000000000000
  0.8038499289698373  0.1961500710301629  0.5000000000000000
  0.3038499289698371  0.3038499289698371 -0.0000000000000000
  0.6961500710301627  0.6961500710301627  0.0000000000000000
 
  0.00000000E+00  0.00000000E+00  0.00000000E+00
  0.00000000E+00  0.00000000E+00  0.00000000E+00
  0.00000000E+00  0.00000000E+00  0.00000000E+00
  0.00000000E+00  0.00000000E+00  0.00000000E+00
  0.00000000E+00  0.00000000E+00  0.00000000E+00
  0.00000000E+00  0.00000000E+00  0.00000000E+00
