Ti2 O4                                  
   1.00000000000000     
     4.6493539122769754    0.0000000000000000    0.0000000000000000
     0.0000000000000000    4.6493539122769754    0.0000000000000000
     0.0000000000000000    0.0000000000000000    2.9679153029645895
   Ti   O 
     2     4
Direct
  0.5000000000000000  0.5000000000000000  0.5000000000000000
  0.0000000000000000  0.0000000000000000  0.0000000000000000
  0.1950617484592954  0.8049382515407046  0.5000000000000000
  0.8049382515407046  0.1950617484592954  0.5000000000000000
  0.3049382515407046  0.3049382515407046  0.0000000000000000
  0.6950617484592954  0.6950617484592954  0.0000000000000000
 
  0.00000000E+00  0.00000000E+00  0.00000000E+00
  0.00000000E+00  0.00000000E+00  0.00000000E+00
  0.00000000E+00  0.00000000E+00  0.00000000E+00
  0.00000000E+00  0.00000000E+00  0.00000000E+00
  0.00000000E+00  0.00000000E+00  0.00000000E+00
  0.00000000E+00  0.00000000E+00  0.00000000E+00
