Ti  O                                   
   1.00000000000000     
    12.9930437378145687    0.0000000000000000    0.0000000000000000
     0.0000000000000000   11.7667138001023517    0.0000000000000000
     0.0000000000000000    0.0000000000000000   30.5357092178438165
   Ti   O 
    80   159
Selective dynamics
Direct
  0.5000000000000000  0.1250000000000000  0.2872483713228746   F   F   F
  0.2500000000000000  0.0000000000000000  0.2872483713228746   F   F   F
  0.2500000000000000  0.1250000000000000  0.3936241856614373   F   F   F
  0.5000000000000000  0.0000000000000000  0.3936241856614373   F   F   F
  0.5000000000000000  0.1250000000000000  0.5000000000000000   F   F   F
  0.2500000000000000  0.0000000000000000  0.5000000000000000   F   F   F
  0.2499973273141975  0.1249971589224472  0.6041082102896880   T   T   T
  0.4999939652183301  0.0000006809304693  0.6101498223693653   T   T   T
  0.5000005913319114  0.1250069377606025  0.7194906746905190   T   T   T
  0.7500005564929282  0.0000014643754582  0.7077706404129529   T   T   T
  0.5000000000000000  0.3750000000000000  0.2872483713228746   F   F   F
  0.2500000000000000  0.2500000000000000  0.2872483713228746   F   F   F
  0.2500000000000000  0.3750000000000000  0.3936241856614373   F   F   F
  0.5000000000000000  0.2500000000000000  0.3936241856614373   F   F   F
  0.5000000000000000  0.3750000000000000  0.5000000000000000   F   F   F
  0.2500000000000000  0.2500000000000000  0.5000000000000000   F   F   F
  0.2500002915106947  0.3750026333197312  0.6041080967105898   T   T   T
  0.5000021881634780  0.2500002056170629  0.6103371634263439   T   T   T
  0.5000000506880795  0.3749934698228685  0.7194909098696556   T   T   T
  0.7499999221955136  0.2499986443523170  0.7078503746258704   T   T   T
  0.5000000000000000  0.6250000000000000  0.2872483713228746   F   F   F
  0.2500000000000000  0.5000000000000000  0.2872483713228746   F   F   F
  0.2500000000000000  0.6250000000000000  0.3936241856614373   F   F   F
  0.5000000000000000  0.5000000000000000  0.3936241856614373   F   F   F
  0.5000000000000000  0.6250000000000000  0.5000000000000000   F   F   F
  0.2500000000000000  0.5000000000000000  0.5000000000000000   F   F   F
  0.2500002957199072  0.6249974538660013  0.6041081561155224   T   T   T
  0.4999987462755371  0.4999994034477240  0.6101502115641253   T   T   T
  0.5000007874634775  0.6250068937444055  0.7194907987037809   T   T   T
  0.7500002481684618  0.5000034673852980  0.7077713583638499   T   T   T
  0.5000000000000000  0.8750000000000000  0.2872483713228746   F   F   F
  0.2500000000000000  0.7500000000000000  0.2872483713228746   F   F   F
  0.2500000000000000  0.8750000000000000  0.3936241856614373   F   F   F
  0.5000000000000000  0.7500000000000000  0.3936241856614373   F   F   F
  0.5000000000000000  0.8750000000000000  0.5000000000000000   F   F   F
  0.2500000000000000  0.7500000000000000  0.5000000000000000   F   F   F
  0.2499973344662010  0.8750028601630788  0.6041081847145549   T   T   T
  0.5000013939244496  0.7499997148808148  0.6103372761649553   T   T   T
  0.4999999222352400  0.8749929596475141  0.7194908454239197   T   T   T
  0.7499998308533833  0.7499939692931790  0.7078519371852110   T   T   T
  0.0000000000000000  0.1250000000000000  0.2872483713228746   F   F   F
  0.7500000000000000  0.0000000000000000  0.2872483713228746   F   F   F
  0.7500000000000000  0.1250000000000000  0.3936241856614373   F   F   F
  0.0000000000000000  0.0000000000000000  0.3936241856614373   F   F   F
  0.0000000000000000  0.1250000000000000  0.5000000000000000   F   F   F
  0.7500000000000000  0.0000000000000000  0.5000000000000000   F   F   F
  0.7499973700170912  0.1249963611569385  0.6041079936143774   T   T   T
  0.9999993463746932  0.0000005064972939  0.6101499582989476   T   T   T
  0.9999996103342923  0.1250069831475500  0.7194909708555670   T   T   T
  0.2500000722479356  0.9999997071103337  0.7077708394327473   T   T   T
  0.0000000000000000  0.3750000000000000  0.2872483713228746   F   F   F
  0.7500000000000000  0.2500000000000000  0.2872483713228746   F   F   F
  0.7500000000000000  0.3750000000000000  0.3936241856614373   F   F   F
  0.0000000000000000  0.2500000000000000  0.3936241856614373   F   F   F
  0.0000000000000000  0.3750000000000000  0.5000000000000000   F   F   F
  0.7500000000000000  0.2500000000000000  0.5000000000000000   F   F   F
  0.7500002315356653  0.3750042186197788  0.6041077992641846   T   T   T
  0.9999996135003357  0.2500001351789578  0.6103372109257350   T   T   T
  0.9999999885663442  0.3749931470999428  0.7194910358631716   T   T   T
  0.2500000089710923  0.2499988750402906  0.7078500679016244   T   T   T
  0.0000000000000000  0.6250000000000000  0.2872483713228746   F   F   F
  0.7500000000000000  0.5000000000000000  0.2872483713228746   F   F   F
  0.7500000000000000  0.6250000000000000  0.3936241856614373   F   F   F
  0.0000000000000000  0.5000000000000000  0.3936241856614373   F   F   F
  0.0000000000000000  0.6250000000000000  0.5000000000000000   F   F   F
  0.7500000000000000  0.5000000000000000  0.5000000000000000   F   F   F
  0.7500004778249334  0.6249938690267456  0.6041081464442755   T   T   T
  0.0000003757618572  0.4999995677128553  0.6101502042560440   T   T   T
  0.9999991785681956  0.6250071039105620  0.7194909330809622   T   T   T
  0.2500000335252182  0.4999995576187928  0.7077708122002448   T   T   T
  0.0000000000000000  0.8750000000000000  0.2872483713228746   F   F   F
  0.7500000000000000  0.7500000000000000  0.2872483713228746   F   F   F
  0.7500000000000000  0.8750000000000000  0.3936241856614373   F   F   F
  0.0000000000000000  0.7500000000000000  0.3936241856614373   F   F   F
  0.0000000000000000  0.8750000000000000  0.5000000000000000   F   F   F
  0.7500000000000000  0.7500000000000000  0.5000000000000000   F   F   F
  0.7499976189446045  0.8750061063186081  0.6041079697300376   T   T   T
  0.0000001627354180  0.7499997785763526  0.6103372601187544   T   T   T
  0.0000003140509222  0.8749930385423568  0.7194911175564656   T   T   T
  0.2500000285873796  0.7500012355535048  0.7078501515269977   T   T   T
  0.3478471838984589  0.1250000000000000  0.2872483713228746   F   F   F
  0.6521528161015411  0.1250000000000000  0.2872483713228746   F   F   F
  0.5000000000000000  0.0000000000000000  0.2456140758511438   F   F   F
  0.5000000000000000  0.0000000000000000  0.3288826667946125   F   F   F
  0.5978471838984589  0.1250000000000000  0.3936241856614373   F   F   F
  0.4021528161015411  0.1250000000000000  0.3936241856614373   F   F   F
  0.2500000000000000  0.0000000000000000  0.3519898901897065   F   F   F
  0.2500000000000000  0.0000000000000000  0.4352584811331752   F   F   F
  0.3478471838984589  0.1250000000000000  0.5000000000000000   F   F   F
  0.6521528161015411  0.1250000000000000  0.5000000000000000   F   F   F
  0.5000000000000000  0.0000000000000000  0.4583657045282692   F   F   F
  0.5000000000000000  0.0000000000000000  0.5416342954717308   F   F   F
  0.6000441998476731  0.1250534676583115  0.6068187596248507   T   T   T
  0.3999541467329237  0.1250549342369069  0.6068186931522277   T   T   T
  0.2500003050511808  0.9999999167713156  0.5652227535699481   T   T   T
  0.2500003391935124  0.9999998404598145  0.6486058577712441   T   T   T
  0.3437807284908700  0.1249952977887645  0.7184619681447089   T   T   T
  0.6562200009870338  0.1249946935431154  0.7184618140736418   T   T   T
  0.4999980804842608  0.9999990613392953  0.6710803486465124   T   T   T
  0.5000002470713767  0.9999995212897730  0.7546142728957719   T   T   T
  0.3478471838984589  0.3750000000000000  0.2872483713228746   F   F   F
  0.6521528161015411  0.3750000000000000  0.2872483713228746   F   F   F
  0.5000000000000000  0.2500000000000000  0.2456140758511438   F   F   F
  0.5000000000000000  0.2500000000000000  0.3288826667946125   F   F   F
  0.5978471838984589  0.3750000000000000  0.3936241856614373   F   F   F
  0.4021528161015411  0.3750000000000000  0.3936241856614373   F   F   F
  0.2500000000000000  0.2500000000000000  0.3519898901897065   F   F   F
  0.2500000000000000  0.2500000000000000  0.4352584811331752   F   F   F
  0.3478471838984589  0.3750000000000000  0.5000000000000000   F   F   F
  0.6521528161015411  0.3750000000000000  0.5000000000000000   F   F   F
  0.5000000000000000  0.2500000000000000  0.4583657045282692   F   F   F
  0.5000000000000000  0.2500000000000000  0.5416342954717308   F   F   F
  0.6000450983116252  0.3749454062772983  0.6068187905004976   T   T   T
  0.3999548908375701  0.3749455176123391  0.6068187489283545   T   T   T
  0.2500000949368655  0.2499998937642687  0.5652315275420179   T   T   T
  0.2500001492372306  0.2499998593273247  0.6486522177271326   T   T   T
  0.3437805677042576  0.3750048313291998  0.7184619631469999   T   T   T
  0.6562189708856181  0.3750039994665357  0.7184619189035715   T   T   T
  0.4999996951165642  0.2499998367999012  0.6711625570376043   T   T   T
  0.4999997964133556  0.2499998062241460  0.7546423326567222   T   T   T
  0.3478471838984589  0.6250000000000000  0.2872483713228746   F   F   F
  0.6521528161015411  0.6250000000000000  0.2872483713228746   F   F   F
  0.5000000000000000  0.5000000000000000  0.2456140758511438   F   F   F
  0.5000000000000000  0.5000000000000000  0.3288826667946125   F   F   F
  0.5978471838984589  0.6250000000000000  0.3936241856614373   F   F   F
  0.4021528161015411  0.6250000000000000  0.3936241856614373   F   F   F
  0.2500000000000000  0.5000000000000000  0.3519898901897065   F   F   F
  0.2500000000000000  0.5000000000000000  0.4352584811331752   F   F   F
  0.3478471838984589  0.6250000000000000  0.5000000000000000   F   F   F
  0.6521528161015411  0.6250000000000000  0.5000000000000000   F   F   F
  0.5000000000000000  0.5000000000000000  0.4583657045282692   F   F   F
  0.5000000000000000  0.5000000000000000  0.5416342954717308   F   F   F
  0.6000465826022321  0.6250549918757073  0.6068186107828524   T   T   T
  0.3999550498690070  0.6250544937907492  0.6068187384440833   T   T   T
  0.2499999985724344  0.5000000722384002  0.5652227255459934   T   T   T
  0.2500000892182825  0.5000000218532463  0.6486060369340976   T   T   T
  0.3437800773165876  0.6249946422350945  0.7184619685671123   T   T   T
  0.6562196456990108  0.6249976464021643  0.7184614507693112   T   T   T
  0.5000000251636934  0.4999995818493446  0.6710803325463175   T   T   T
  0.3478471838984589  0.8750000000000000  0.2872483713228746   F   F   F
  0.6521528161015411  0.8750000000000000  0.2872483713228746   F   F   F
  0.5000000000000000  0.7500000000000000  0.2456140758511438   F   F   F
  0.5000000000000000  0.7500000000000000  0.3288826667946125   F   F   F
  0.5978471838984589  0.8750000000000000  0.3936241856614373   F   F   F
  0.4021528161015411  0.8750000000000000  0.3936241856614373   F   F   F
  0.2500000000000000  0.7500000000000000  0.3519898901897065   F   F   F
  0.2500000000000000  0.7500000000000000  0.4352584811331752   F   F   F
  0.3478471838984589  0.8750000000000000  0.5000000000000000   F   F   F
  0.6521528161015411  0.8750000000000000  0.5000000000000000   F   F   F
  0.5000000000000000  0.7500000000000000  0.4583657045282692   F   F   F
  0.5000000000000000  0.7500000000000000  0.5416342954717308   F   F   F
  0.6000456173093411  0.8749457121791124  0.6068184676314274   T   T   T
  0.3999542571437544  0.8749444559118018  0.6068186598072813   T   T   T
  0.2500000844525374  0.7499999925975587  0.5652315596295878   T   T   T
  0.2500001764475996  0.7499999361605774  0.6486522019906502   T   T   T
  0.3437808813539149  0.8750046210319340  0.7184620061434259   T   T   T
  0.6562189117844497  0.8750055628654607  0.7184614749595895   T   T   T
  0.4999995659395964  0.7500000369610973  0.6711623226935259   T   T   T
  0.5000003518474898  0.7500010329594531  0.7546422320288428   T   T   T
  0.8478471838984589  0.1250000000000000  0.2872483713228746   F   F   F
  0.1521528161015411  0.1250000000000000  0.2872483713228746   F   F   F
  0.0000000000000000  0.0000000000000000  0.2456140758511438   F   F   F
  0.0000000000000000  0.0000000000000000  0.3288826667946125   F   F   F
  0.0978471838984589  0.1250000000000000  0.3936241856614373   F   F   F
  0.9021528161015411  0.1250000000000000  0.3936241856614373   F   F   F
  0.7500000000000000  0.0000000000000000  0.3519898901897065   F   F   F
  0.7500000000000000  0.0000000000000000  0.4352584811331752   F   F   F
  0.8478471838984589  0.1250000000000000  0.5000000000000000   F   F   F
  0.1521528161015411  0.1250000000000000  0.5000000000000000   F   F   F
  0.0000000000000000  0.0000000000000000  0.4583657045282692   F   F   F
  0.0000000000000000  0.0000000000000000  0.5416342954717308   F   F   F
  0.1000455192418457  0.1250542861537554  0.6068187582565301   T   T   T
  0.8999555033993190  0.1250542892629483  0.6068187609994453   T   T   T
  0.7500003184881194  0.9999996918772780  0.5652228832961725   T   T   T
  0.7500004999961760  0.9999995458778557  0.6486055564538944   T   T   T
  0.8437801967595178  0.1249946338664643  0.7184619117942006   T   T   T
  0.1562193108232464  0.1249952921704605  0.7184619667604863   T   T   T
  0.0000002331317290  0.9999996069296202  0.6710805584596926   T   T   T
  0.9999997995996566  0.9999994765678792  0.7546143779077923   T   T   T
  0.8478471838984589  0.3750000000000000  0.2872483713228746   F   F   F
  0.1521528161015411  0.3750000000000000  0.2872483713228746   F   F   F
  0.0000000000000000  0.2500000000000000  0.2456140758511438   F   F   F
  0.0000000000000000  0.2500000000000000  0.3288826667946125   F   F   F
  0.0978471838984589  0.3750000000000000  0.3936241856614373   F   F   F
  0.9021528161015411  0.3750000000000000  0.3936241856614373   F   F   F
  0.7500000000000000  0.2500000000000000  0.3519898901897065   F   F   F
  0.7500000000000000  0.2500000000000000  0.4352584811331752   F   F   F
  0.8478471838984589  0.3750000000000000  0.5000000000000000   F   F   F
  0.1521528161015411  0.3750000000000000  0.5000000000000000   F   F   F
  0.0000000000000000  0.2500000000000000  0.4583657045282692   F   F   F
  0.0000000000000000  0.2500000000000000  0.5416342954717308   F   F   F
  0.1000452083986829  0.3749453449141029  0.6068187530193754   T   T   T
  0.8999551297866120  0.3749454440714928  0.6068187647445953   T   T   T
  0.7500001664317608  0.2500000307464347  0.5652313894375922   T   T   T
  0.7500001959352431  0.2500002703104798  0.6486516317301110   T   T   T
  0.8437813050233984  0.3750038064686620  0.7184619833662538   T   T   T
  0.1562193770651064  0.3750048738601990  0.7184619852169050   T   T   T
  0.0000002245406847  0.2499997575784150  0.6711624514215231   T   T   T
  0.0000004003656571  0.2500001010990758  0.7546422260183476   T   T   T
  0.8478471838984589  0.6250000000000000  0.2872483713228746   F   F   F
  0.1521528161015411  0.6250000000000000  0.2872483713228746   F   F   F
  0.0000000000000000  0.5000000000000000  0.2456140758511438   F   F   F
  0.0000000000000000  0.5000000000000000  0.3288826667946125   F   F   F
  0.0978471838984589  0.6250000000000000  0.3936241856614373   F   F   F
  0.9021528161015411  0.6250000000000000  0.3936241856614373   F   F   F
  0.7500000000000000  0.5000000000000000  0.3519898901897065   F   F   F
  0.7500000000000000  0.5000000000000000  0.4352584811331752   F   F   F
  0.8478471838984589  0.6250000000000000  0.5000000000000000   F   F   F
  0.1521528161015411  0.6250000000000000  0.5000000000000000   F   F   F
  0.0000000000000000  0.5000000000000000  0.4583657045282692   F   F   F
  0.0000000000000000  0.5000000000000000  0.5416342954717308   F   F   F
  0.1000451394285307  0.6250545177714741  0.6068187621943153   T   T   T
  0.8999548939032209  0.6250538678536657  0.6068190102925826   T   T   T
  0.7500000066339609  0.5000008139394581  0.5652231278569531   T   T   T
  0.7500001402614487  0.5000000665461997  0.6486047911215920   T   T   T
  0.8437806696861045  0.6249978458688688  0.7184614537100771   T   T   T
  0.1562198180469920  0.6249946236601858  0.7184619464419342   T   T   T
  0.0000002265298846  0.4999994045204517  0.6710805223106178   T   T   T
  0.9999999679176028  0.4999994523752491  0.7546144962764529   T   T   T
  0.8478471838984589  0.8750000000000000  0.2872483713228746   F   F   F
  0.1521528161015411  0.8750000000000000  0.2872483713228746   F   F   F
  0.0000000000000000  0.7500000000000000  0.2456140758511438   F   F   F
  0.0000000000000000  0.7500000000000000  0.3288826667946125   F   F   F
  0.0978471838984589  0.8750000000000000  0.3936241856614373   F   F   F
  0.9021528161015411  0.8750000000000000  0.3936241856614373   F   F   F
  0.7500000000000000  0.7500000000000000  0.3519898901897065   F   F   F
  0.7500000000000000  0.7500000000000000  0.4352584811331752   F   F   F
  0.8478471838984589  0.8750000000000000  0.5000000000000000   F   F   F
  0.1521528161015411  0.8750000000000000  0.5000000000000000   F   F   F
  0.0000000000000000  0.7500000000000000  0.4583657045282692   F   F   F
  0.0000000000000000  0.7500000000000000  0.5416342954717308   F   F   F
  0.1000455070594981  0.8749452458378073  0.6068187305502519   T   T   T
  0.8999553213981883  0.8749459595398434  0.6068188856012995   T   T   T
  0.7500106158813438  0.7500001102610483  0.5652317834465208   T   T   T
  0.7500000100268807  0.7500007329594425  0.6486505926089805   T   T   T
  0.8437812109032521  0.8750058718204272  0.7184617412925505   T   T   T
  0.1562190793739191  0.8750045960109674  0.7184619989726784   T   T   T
  0.0000001478144824  0.7500002021731049  0.6711623136724114   T   T   T
  0.9999999295657105  0.7500007089346283  0.7546421946316642   T   T   T
 
  0.00000000E+00  0.00000000E+00  0.00000000E+00
  0.00000000E+00  0.00000000E+00  0.00000000E+00
  0.00000000E+00  0.00000000E+00  0.00000000E+00
  0.00000000E+00  0.00000000E+00  0.00000000E+00
  0.00000000E+00  0.00000000E+00  0.00000000E+00
  0.00000000E+00  0.00000000E+00  0.00000000E+00
  0.00000000E+00  0.00000000E+00  0.00000000E+00
  0.00000000E+00  0.00000000E+00  0.00000000E+00
  0.00000000E+00  0.00000000E+00  0.00000000E+00
  0.00000000E+00  0.00000000E+00  0.00000000E+00
  0.00000000E+00  0.00000000E+00  0.00000000E+00
  0.00000000E+00  0.00000000E+00  0.00000000E+00
  0.00000000E+00  0.00000000E+00  0.00000000E+00
  0.00000000E+00  0.00000000E+00  0.00000000E+00
  0.00000000E+00  0.00000000E+00  0.00000000E+00
  0.00000000E+00  0.00000000E+00  0.00000000E+00
  0.00000000E+00  0.00000000E+00  0.00000000E+00
  0.00000000E+00  0.00000000E+00  0.00000000E+00
  0.00000000E+00  0.00000000E+00  0.00000000E+00
  0.00000000E+00  0.00000000E+00  0.00000000E+00
  0.00000000E+00  0.00000000E+00  0.00000000E+00
  0.00000000E+00  0.00000000E+00  0.00000000E+00
  0.00000000E+00  0.00000000E+00  0.00000000E+00
  0.00000000E+00  0.00000000E+00  0.00000000E+00
  0.00000000E+00  0.00000000E+00  0.00000000E+00
  0.00000000E+00  0.00000000E+00  0.00000000E+00
  0.00000000E+00  0.00000000E+00  0.00000000E+00
  0.00000000E+00  0.00000000E+00  0.00000000E+00
  0.00000000E+00  0.00000000E+00  0.00000000E+00
  0.00000000E+00  0.00000000E+00  0.00000000E+00
  0.00000000E+00  0.00000000E+00  0.00000000E+00
  0.00000000E+00  0.00000000E+00  0.00000000E+00
  0.00000000E+00  0.00000000E+00  0.00000000E+00
  0.00000000E+00  0.00000000E+00  0.00000000E+00
  0.00000000E+00  0.00000000E+00  0.00000000E+00
  0.00000000E+00  0.00000000E+00  0.00000000E+00
  0.00000000E+00  0.00000000E+00  0.00000000E+00
  0.00000000E+00  0.00000000E+00  0.00000000E+00
  0.00000000E+00  0.00000000E+00  0.00000000E+00
  0.00000000E+00  0.00000000E+00  0.00000000E+00
  0.00000000E+00  0.00000000E+00  0.00000000E+00
  0.00000000E+00  0.00000000E+00  0.00000000E+00
  0.00000000E+00  0.00000000E+00  0.00000000E+00
  0.00000000E+00  0.00000000E+00  0.00000000E+00
  0.00000000E+00  0.00000000E+00  0.00000000E+00
  0.00000000E+00  0.00000000E+00  0.00000000E+00
  0.00000000E+00  0.00000000E+00  0.00000000E+00
  0.00000000E+00  0.00000000E+00  0.00000000E+00
  0.00000000E+00  0.00000000E+00  0.00000000E+00
  0.00000000E+00  0.00000000E+00  0.00000000E+00
  0.00000000E+00  0.00000000E+00  0.00000000E+00
  0.00000000E+00  0.00000000E+00  0.00000000E+00
  0.00000000E+00  0.00000000E+00  0.00000000E+00
  0.00000000E+00  0.00000000E+00  0.00000000E+00
  0.00000000E+00  0.00000000E+00  0.00000000E+00
  0.00000000E+00  0.00000000E+00  0.00000000E+00
  0.00000000E+00  0.00000000E+00  0.00000000E+00
  0.00000000E+00  0.00000000E+00  0.00000000E+00
  0.00000000E+00  0.00000000E+00  0.00000000E+00
  0.00000000E+00  0.00000000E+00  0.00000000E+00
  0.00000000E+00  0.00000000E+00  0.00000000E+00
  0.00000000E+00  0.00000000E+00  0.00000000E+00
  0.00000000E+00  0.00000000E+00  0.00000000E+00
  0.00000000E+00  0.00000000E+00  0.00000000E+00
  0.00000000E+00  0.00000000E+00  0.00000000E+00
  0.00000000E+00  0.00000000E+00  0.00000000E+00
  0.00000000E+00  0.00000000E+00  0.00000000E+00
  0.00000000E+00  0.00000000E+00  0.00000000E+00
  0.00000000E+00  0.00000000E+00  0.00000000E+00
  0.00000000E+00  0.00000000E+00  0.00000000E+00
  0.00000000E+00  0.00000000E+00  0.00000000E+00
  0.00000000E+00  0.00000000E+00  0.00000000E+00
  0.00000000E+00  0.00000000E+00  0.00000000E+00
  0.00000000E+00  0.00000000E+00  0.00000000E+00
  0.00000000E+00  0.00000000E+00  0.00000000E+00
  0.00000000E+00  0.00000000E+00  0.00000000E+00
  0.00000000E+00  0.00000000E+00  0.00000000E+00
  0.00000000E+00  0.00000000E+00  0.00000000E+00
  0.00000000E+00  0.00000000E+00  0.00000000E+00
  0.00000000E+00  0.00000000E+00  0.00000000E+00
  0.00000000E+00  0.00000000E+00  0.00000000E+00
  0.00000000E+00  0.00000000E+00  0.00000000E+00
  0.00000000E+00  0.00000000E+00  0.00000000E+00
  0.00000000E+00  0.00000000E+00  0.00000000E+00
  0.00000000E+00  0.00000000E+00  0.00000000E+00
  0.00000000E+00  0.00000000E+00  0.00000000E+00
  0.00000000E+00  0.00000000E+00  0.00000000E+00
  0.00000000E+00  0.00000000E+00  0.00000000E+00
  0.00000000E+00  0.00000000E+00  0.00000000E+00
  0.00000000E+00  0.00000000E+00  0.00000000E+00
  0.00000000E+00  0.00000000E+00  0.00000000E+00
  0.00000000E+00  0.00000000E+00  0.00000000E+00
  0.00000000E+00  0.00000000E+00  0.00000000E+00
  0.00000000E+00  0.00000000E+00  0.00000000E+00
  0.00000000E+00  0.00000000E+00  0.00000000E+00
  0.00000000E+00  0.00000000E+00  0.00000000E+00
  0.00000000E+00  0.00000000E+00  0.00000000E+00
  0.00000000E+00  0.00000000E+00  0.00000000E+00
  0.00000000E+00  0.00000000E+00  0.00000000E+00
  0.00000000E+00  0.00000000E+00  0.00000000E+00
  0.00000000E+00  0.00000000E+00  0.00000000E+00
  0.00000000E+00  0.00000000E+00  0.00000000E+00
  0.00000000E+00  0.00000000E+00  0.00000000E+00
  0.00000000E+00  0.00000000E+00  0.00000000E+00
  0.00000000E+00  0.00000000E+00  0.00000000E+00
  0.00000000E+00  0.00000000E+00  0.00000000E+00
  0.00000000E+00  0.00000000E+00  0.00000000E+00
  0.00000000E+00  0.00000000E+00  0.00000000E+00
  0.00000000E+00  0.00000000E+00  0.00000000E+00
  0.00000000E+00  0.00000000E+00  0.00000000E+00
  0.00000000E+00  0.00000000E+00  0.00000000E+00
  0.00000000E+00  0.00000000E+00  0.00000000E+00
  0.00000000E+00  0.00000000E+00  0.00000000E+00
  0.00000000E+00  0.00000000E+00  0.00000000E+00
  0.00000000E+00  0.00000000E+00  0.00000000E+00
  0.00000000E+00  0.00000000E+00  0.00000000E+00
  0.00000000E+00  0.00000000E+00  0.00000000E+00
  0.00000000E+00  0.00000000E+00  0.00000000E+00
  0.00000000E+00  0.00000000E+00  0.00000000E+00
  0.00000000E+00  0.00000000E+00  0.00000000E+00
  0.00000000E+00  0.00000000E+00  0.00000000E+00
  0.00000000E+00  0.00000000E+00  0.00000000E+00
  0.00000000E+00  0.00000000E+00  0.00000000E+00
  0.00000000E+00  0.00000000E+00  0.00000000E+00
  0.00000000E+00  0.00000000E+00  0.00000000E+00
  0.00000000E+00  0.00000000E+00  0.00000000E+00
  0.00000000E+00  0.00000000E+00  0.00000000E+00
  0.00000000E+00  0.00000000E+00  0.00000000E+00
  0.00000000E+00  0.00000000E+00  0.00000000E+00
  0.00000000E+00  0.00000000E+00  0.00000000E+00
  0.00000000E+00  0.00000000E+00  0.00000000E+00
  0.00000000E+00  0.00000000E+00  0.00000000E+00
  0.00000000E+00  0.00000000E+00  0.00000000E+00
  0.00000000E+00  0.00000000E+00  0.00000000E+00
  0.00000000E+00  0.00000000E+00  0.00000000E+00
  0.00000000E+00  0.00000000E+00  0.00000000E+00
  0.00000000E+00  0.00000000E+00  0.00000000E+00
  0.00000000E+00  0.00000000E+00  0.00000000E+00
  0.00000000E+00  0.00000000E+00  0.00000000E+00
  0.00000000E+00  0.00000000E+00  0.00000000E+00
  0.00000000E+00  0.00000000E+00  0.00000000E+00
  0.00000000E+00  0.00000000E+00  0.00000000E+00
  0.00000000E+00  0.00000000E+00  0.00000000E+00
  0.00000000E+00  0.00000000E+00  0.00000000E+00
  0.00000000E+00  0.00000000E+00  0.00000000E+00
  0.00000000E+00  0.00000000E+00  0.00000000E+00
  0.00000000E+00  0.00000000E+00  0.00000000E+00
  0.00000000E+00  0.00000000E+00  0.00000000E+00
  0.00000000E+00  0.00000000E+00  0.00000000E+00
  0.00000000E+00  0.00000000E+00  0.00000000E+00
  0.00000000E+00  0.00000000E+00  0.00000000E+00
  0.00000000E+00  0.00000000E+00  0.00000000E+00
  0.00000000E+00  0.00000000E+00  0.00000000E+00
  0.00000000E+00  0.00000000E+00  0.00000000E+00
  0.00000000E+00  0.00000000E+00  0.00000000E+00
  0.00000000E+00  0.00000000E+00  0.00000000E+00
  0.00000000E+00  0.00000000E+00  0.00000000E+00
  0.00000000E+00  0.00000000E+00  0.00000000E+00
  0.00000000E+00  0.00000000E+00  0.00000000E+00
  0.00000000E+00  0.00000000E+00  0.00000000E+00
  0.00000000E+00  0.00000000E+00  0.00000000E+00
  0.00000000E+00  0.00000000E+00  0.00000000E+00
  0.00000000E+00  0.00000000E+00  0.00000000E+00
  0.00000000E+00  0.00000000E+00  0.00000000E+00
  0.00000000E+00  0.00000000E+00  0.00000000E+00
  0.00000000E+00  0.00000000E+00  0.00000000E+00
  0.00000000E+00  0.00000000E+00  0.00000000E+00
  0.00000000E+00  0.00000000E+00  0.00000000E+00
  0.00000000E+00  0.00000000E+00  0.00000000E+00
  0.00000000E+00  0.00000000E+00  0.00000000E+00
  0.00000000E+00  0.00000000E+00  0.00000000E+00
  0.00000000E+00  0.00000000E+00  0.00000000E+00
  0.00000000E+00  0.00000000E+00  0.00000000E+00
  0.00000000E+00  0.00000000E+00  0.00000000E+00
  0.00000000E+00  0.00000000E+00  0.00000000E+00
  0.00000000E+00  0.00000000E+00  0.00000000E+00
  0.00000000E+00  0.00000000E+00  0.00000000E+00
  0.00000000E+00  0.00000000E+00  0.00000000E+00
  0.00000000E+00  0.00000000E+00  0.00000000E+00
  0.00000000E+00  0.00000000E+00  0.00000000E+00
  0.00000000E+00  0.00000000E+00  0.00000000E+00
  0.00000000E+00  0.00000000E+00  0.00000000E+00
  0.00000000E+00  0.00000000E+00  0.00000000E+00
  0.00000000E+00  0.00000000E+00  0.00000000E+00
  0.00000000E+00  0.00000000E+00  0.00000000E+00
  0.00000000E+00  0.00000000E+00  0.00000000E+00
  0.00000000E+00  0.00000000E+00  0.00000000E+00
  0.00000000E+00  0.00000000E+00  0.00000000E+00
  0.00000000E+00  0.00000000E+00  0.00000000E+00
  0.00000000E+00  0.00000000E+00  0.00000000E+00
  0.00000000E+00  0.00000000E+00  0.00000000E+00
  0.00000000E+00  0.00000000E+00  0.00000000E+00
  0.00000000E+00  0.00000000E+00  0.00000000E+00
  0.00000000E+00  0.00000000E+00  0.00000000E+00
  0.00000000E+00  0.00000000E+00  0.00000000E+00
  0.00000000E+00  0.00000000E+00  0.00000000E+00
  0.00000000E+00  0.00000000E+00  0.00000000E+00
  0.00000000E+00  0.00000000E+00  0.00000000E+00
  0.00000000E+00  0.00000000E+00  0.00000000E+00
  0.00000000E+00  0.00000000E+00  0.00000000E+00
  0.00000000E+00  0.00000000E+00  0.00000000E+00
  0.00000000E+00  0.00000000E+00  0.00000000E+00
  0.00000000E+00  0.00000000E+00  0.00000000E+00
  0.00000000E+00  0.00000000E+00  0.00000000E+00
  0.00000000E+00  0.00000000E+00  0.00000000E+00
  0.00000000E+00  0.00000000E+00  0.00000000E+00
  0.00000000E+00  0.00000000E+00  0.00000000E+00
  0.00000000E+00  0.00000000E+00  0.00000000E+00
  0.00000000E+00  0.00000000E+00  0.00000000E+00
  0.00000000E+00  0.00000000E+00  0.00000000E+00
  0.00000000E+00  0.00000000E+00  0.00000000E+00
  0.00000000E+00  0.00000000E+00  0.00000000E+00
  0.00000000E+00  0.00000000E+00  0.00000000E+00
  0.00000000E+00  0.00000000E+00  0.00000000E+00
  0.00000000E+00  0.00000000E+00  0.00000000E+00
  0.00000000E+00  0.00000000E+00  0.00000000E+00
  0.00000000E+00  0.00000000E+00  0.00000000E+00
  0.00000000E+00  0.00000000E+00  0.00000000E+00
  0.00000000E+00  0.00000000E+00  0.00000000E+00
  0.00000000E+00  0.00000000E+00  0.00000000E+00
  0.00000000E+00  0.00000000E+00  0.00000000E+00
  0.00000000E+00  0.00000000E+00  0.00000000E+00
  0.00000000E+00  0.00000000E+00  0.00000000E+00
  0.00000000E+00  0.00000000E+00  0.00000000E+00
  0.00000000E+00  0.00000000E+00  0.00000000E+00
  0.00000000E+00  0.00000000E+00  0.00000000E+00
  0.00000000E+00  0.00000000E+00  0.00000000E+00
  0.00000000E+00  0.00000000E+00  0.00000000E+00
  0.00000000E+00  0.00000000E+00  0.00000000E+00
  0.00000000E+00  0.00000000E+00  0.00000000E+00
  0.00000000E+00  0.00000000E+00  0.00000000E+00
  0.00000000E+00  0.00000000E+00  0.00000000E+00
  0.00000000E+00  0.00000000E+00  0.00000000E+00
  0.00000000E+00  0.00000000E+00  0.00000000E+00
  0.00000000E+00  0.00000000E+00  0.00000000E+00
  0.00000000E+00  0.00000000E+00  0.00000000E+00
  0.00000000E+00  0.00000000E+00  0.00000000E+00
  0.00000000E+00  0.00000000E+00  0.00000000E+00
  0.00000000E+00  0.00000000E+00  0.00000000E+00
