Ti  O 
 1.0000000000000000
    12.9930437378145687    0.0000000000000000    0.0000000000000000
     0.0000000000000000   11.7667138001023517    0.0000000000000000
     0.0000000000000000    0.0000000000000000   30.5357092178438165
  Ti   O
  80 159
Selective dynamics
Direct
  0.4999999999999999  0.1250000000000000  0.2872483713228746   F   F   F
  0.2500000000000000  0.0000000000000000  0.2872483713228746   F   F   F
  0.2500000000000000  0.1250000000000000  0.3936241856614373   F   F   F
  0.4999999999999999  0.0000000000000000  0.3936241856614373   F   F   F
  0.4999999999999999  0.1250000000000000  0.4999999999999999   F   F   F
  0.2500000000000000  0.0000000000000000  0.4999999999999999   F   F   F
  0.2499973273141947  0.1249971589224454  0.6041082102896890   T   T   T
  0.4999939652183326  0.0000006809304679  0.6101498223693627   T   T   T
  0.5000005913319112  0.1250069377606018  0.7194906746905180   T   T   T
  0.7500005564929303  0.0000014643754610  0.7077706404129532   T   T   T
  0.4999999999999999  0.3750000000000000  0.2872483713228746   F   F   F
  0.2500000000000000  0.2500000000000000  0.2872483713228746   F   F   F
  0.2500000000000000  0.3750000000000000  0.3936241856614373   F   F   F
  0.4999999999999999  0.2500000000000000  0.3936241856614373   F   F   F
  0.4999999999999999  0.3750000000000000  0.4999999999999999   F   F   F
  0.2500000000000000  0.2500000000000000  0.4999999999999999   F   F   F
  0.2500002915106981  0.3750026333197315  0.6041080967105870   T   T   T
  0.5000021881634793  0.2500002056170663  0.6103371634263405   T   T   T
  0.5000000506880785  0.3749934698228658  0.7194909098696585   T   T   T
  0.7499999221955100  0.2499986443523166  0.7078503746258679   T   T   T
  0.4999999999999999  0.6250000000000000  0.2872483713228746   F   F   F
  0.2500000000000000  0.5000000000000000  0.2872483713228746   F   F   F
  0.2500000000000000  0.6250000000000000  0.3936241856614373   F   F   F
  0.4999999999999999  0.5000000000000000  0.3936241856614373   F   F   F
  0.4999999999999999  0.6250000000000000  0.4999999999999999   F   F   F
  0.2500000000000000  0.5000000000000000  0.4999999999999999   F   F   F
  0.2500002957199081  0.6249974538660034  0.6041081561155243   T   T   T
  0.4999987462755369  0.4999994034477210  0.6101502115641277   T   T   T
  0.5000007874634743  0.6250068937444021  0.7194907987037839   T   T   T
  0.7500002481684598  0.5000034673852987  0.7077713583638524   T   T   T
  0.4999999999999999  0.8750000000000000  0.2872483713228746   F   F   F
  0.2500000000000000  0.7500000000000000  0.2872483713228746   F   F   F
  0.2500000000000000  0.8750000000000000  0.3936241856614373   F   F   F
  0.4999999999999999  0.7500000000000000  0.3936241856614373   F   F   F
  0.4999999999999999  0.8750000000000000  0.4999999999999999   F   F   F
  0.2500000000000000  0.7500000000000000  0.4999999999999999   F   F   F
  0.2499973344662045  0.8750028601630793  0.6041081847145547   T   T   T
  0.5000013939244519  0.7499997148808155  0.6103372761649570   T   T   T
  0.4999999222352371  0.8749929596475124  0.7194908454239226   T   T   T
  0.7499998308533815  0.7499939692931800  0.7078519371852104   T   T   T
  0.0000000000000000  0.1250000000000000  0.2872483713228746   F   F   F
  0.7500000000000000  0.0000000000000000  0.2872483713228746   F   F   F
  0.7500000000000000  0.1250000000000000  0.3936241856614373   F   F   F
  0.0000000000000000  0.0000000000000000  0.3936241856614373   F   F   F
  0.0000000000000000  0.1250000000000000  0.4999999999999999   F   F   F
  0.7500000000000000  0.0000000000000000  0.4999999999999999   F   F   F
  0.7499973700170939  0.1249963611569357  0.6041079936143773   T   T   T
  0.9999993463746927  0.0000005064972935  0.6101499582989489   T   T   T
  0.9999996103342949  0.1250069831475509  0.7194909708555700   T   T   T
  0.2500000722479368  0.9999997071103309  0.7077708394327494   T   T   T
  0.0000000000000000  0.3750000000000000  0.2872483713228746   F   F   F
  0.7500000000000000  0.2500000000000000  0.2872483713228746   F   F   F
  0.7500000000000000  0.3750000000000000  0.3936241856614373   F   F   F
  0.0000000000000000  0.2500000000000000  0.3936241856614373   F   F   F
  0.0000000000000000  0.3750000000000000  0.4999999999999999   F   F   F
  0.7500000000000000  0.2500000000000000  0.4999999999999999   F   F   F
  0.7500002315356675  0.3750042186197758  0.6041077992641852   T   T   T
  0.9999996135003379  0.2500001351789544  0.6103372109257316   T   T   T
  0.9999999885663418  0.3749931470999398  0.7194910358631726   T   T   T
  0.2500000089710950  0.2499988750402879  0.7078500679016223   T   T   T
  0.0000000000000000  0.6250000000000000  0.2872483713228746   F   F   F
  0.7500000000000000  0.5000000000000000  0.2872483713228746   F   F   F
  0.7500000000000000  0.6250000000000000  0.3936241856614373   F   F   F
  0.0000000000000000  0.5000000000000000  0.3936241856614373   F   F   F
  0.0000000000000000  0.6250000000000000  0.4999999999999999   F   F   F
  0.7500000000000000  0.5000000000000000  0.4999999999999999   F   F   F
  0.7500004778249300  0.6249938690267425  0.6041081464442751   T   T   T
  0.0000003757618579  0.4999995677128529  0.6101502042560424   T   T   T
  0.9999991785681981  0.6250071039105607  0.7194909330809652   T   T   T
  0.2500000335252172  0.4999995576187958  0.7077708122002471   T   T   T
  0.0000000000000000  0.8750000000000000  0.2872483713228746   F   F   F
  0.7500000000000000  0.7500000000000000  0.2872483713228746   F   F   F
  0.7500000000000000  0.8750000000000000  0.3936241856614373   F   F   F
  0.0000000000000000  0.7500000000000000  0.3936241856614373   F   F   F
  0.0000000000000000  0.8750000000000000  0.4999999999999999   F   F   F
  0.7500000000000000  0.7500000000000000  0.4999999999999999   F   F   F
  0.7499976189446064  0.8750061063186102  0.6041079697300410   T   T   T
  0.0000001627354183  0.7499997785763521  0.6103372601187510   T   T   T
  0.0000003140509236  0.8749930385423600  0.7194911175564687   T   T   T
  0.2500000285873786  0.7500012355535035  0.7078501515269967   T   T   T
  0.3478471838984589  0.1250000000000000  0.2872483713228746   F   F   F
  0.6521528161015411  0.1250000000000000  0.2872483713228746   F   F   F
  0.4999999999999999  0.0000000000000000  0.2456140758511438   F   F   F
  0.4999999999999999  0.0000000000000000  0.3288826667946125   F   F   F
  0.5978471838984589  0.1250000000000000  0.3936241856614373   F   F   F
  0.4021528161015411  0.1250000000000000  0.3936241856614373   F   F   F
  0.2500000000000000  0.0000000000000000  0.3519898901897065   F   F   F
  0.2500000000000000  0.0000000000000000  0.4352584811331752   F   F   F
  0.3478471838984589  0.1250000000000000  0.4999999999999999   F   F   F
  0.6521528161015411  0.1250000000000000  0.4999999999999999   F   F   F
  0.4999999999999999  0.0000000000000000  0.4583657045282692   F   F   F
  0.4999999999999999  0.0000000000000000  0.5416342954717308   F   F   F
  0.6000441998476733  0.1250534676583107  0.6068187596248503   T   T   T
  0.3999541467329221  0.1250549342369100  0.6068186931522246   T   T   T
  0.2500003050511792  0.9999999167713174  0.5652227535699510   T   T   T
  0.2500003391935153  0.9999998404598179  0.6486058577712462   T   T   T
  0.3437807284908733  0.1249952977887635  0.7184619681447055   T   T   T
  0.6562200009870364  0.1249946935431157  0.7184618140736425   T   T   T
  0.4999980804842643  0.9999990613392939  0.6710803486465117   T   T   T
  0.5000002470713745  0.9999995212897732  0.7546142728957753   T   T   T
  0.3478471838984589  0.3750000000000000  0.2872483713228746   F   F   F
  0.6521528161015411  0.3750000000000000  0.2872483713228746   F   F   F
  0.4999999999999999  0.2500000000000000  0.2456140758511438   F   F   F
  0.4999999999999999  0.2500000000000000  0.3288826667946125   F   F   F
  0.5978471838984589  0.3750000000000000  0.3936241856614373   F   F   F
  0.4021528161015411  0.3750000000000000  0.3936241856614373   F   F   F
  0.2500000000000000  0.2500000000000000  0.3519898901897065   F   F   F
  0.2500000000000000  0.2500000000000000  0.4352584811331752   F   F   F
  0.3478471838984589  0.3750000000000000  0.4999999999999999   F   F   F
  0.6521528161015411  0.3750000000000000  0.4999999999999999   F   F   F
  0.4999999999999999  0.2500000000000000  0.4583657045282692   F   F   F
  0.4999999999999999  0.2500000000000000  0.5416342954717308   F   F   F
  0.6000450983116228  0.3749454062772961  0.6068187905004951   T   T   T
  0.3999548908375692  0.3749455176123425  0.6068187489283573   T   T   T
  0.2500000949368636  0.2499998937642707  0.5652315275420162   T   T   T
  0.2500001492372282  0.2499998593273243  0.6486522177271352   T   T   T
  0.3437805677042575  0.3750048313291974  0.7184619631470003   T   T   T
  0.6562189708856215  0.3750039994665333  0.7184619189035694   T   T   T
  0.4999996951165674  0.2499998367999010  0.6711625570376029   T   T   T
  0.4999997964133535  0.2499998062241493  0.7546423326567238   T   T   T
  0.3478471838984589  0.6250000000000000  0.2872483713228746   F   F   F
  0.6521528161015411  0.6250000000000000  0.2872483713228746   F   F   F
  0.4999999999999999  0.5000000000000000  0.2456140758511438   F   F   F
  0.4999999999999999  0.5000000000000000  0.3288826667946125   F   F   F
  0.5978471838984589  0.6250000000000000  0.3936241856614373   F   F   F
  0.4021528161015411  0.6250000000000000  0.3936241856614373   F   F   F
  0.2500000000000000  0.5000000000000000  0.3519898901897065   F   F   F
  0.2500000000000000  0.5000000000000000  0.4352584811331752   F   F   F
  0.3478471838984589  0.6250000000000000  0.4999999999999999   F   F   F
  0.6521528161015411  0.6250000000000000  0.4999999999999999   F   F   F
  0.4999999999999999  0.5000000000000000  0.4583657045282692   F   F   F
  0.4999999999999999  0.5000000000000000  0.5416342954717308   F   F   F
  0.6000465826022289  0.6250549918757105  0.6068186107828497   T   T   T
  0.3999550498690072  0.6250544937907480  0.6068187384440860   T   T   T
  0.2499999985724370  0.5000000722383997  0.5652227255459906   T   T   T
  0.2500000892182821  0.5000000218532454  0.6486060369340995   T   T   T
  0.3437800773165878  0.6249946422350949  0.7184619685671099   T   T   T
  0.6562196456990111  0.6249976464021609  0.7184614507693082   T   T   T
  0.5000000251636952  0.4999995818493449  0.6710803325463193   T   T   T
  0.3478471838984589  0.8750000000000000  0.2872483713228746   F   F   F
  0.6521528161015411  0.8750000000000000  0.2872483713228746   F   F   F
  0.4999999999999999  0.7500000000000000  0.2456140758511438   F   F   F
  0.4999999999999999  0.7500000000000000  0.3288826667946125   F   F   F
  0.5978471838984589  0.8750000000000000  0.3936241856614373   F   F   F
  0.4021528161015411  0.8750000000000000  0.3936241856614373   F   F   F
  0.2500000000000000  0.7500000000000000  0.3519898901897065   F   F   F
  0.2500000000000000  0.7500000000000000  0.4352584811331752   F   F   F
  0.3478471838984589  0.8750000000000000  0.4999999999999999   F   F   F
  0.6521528161015411  0.8750000000000000  0.4999999999999999   F   F   F
  0.4999999999999999  0.7500000000000000  0.4583657045282692   F   F   F
  0.4999999999999999  0.7500000000000000  0.5416342954717308   F   F   F
  0.6000456173093435  0.8749457121791097  0.6068184676314239   T   T   T
  0.3999542571437550  0.8749444559117999  0.6068186598072832   T   T   T
  0.2500000844525396  0.7499999925975583  0.5652315596295897   T   T   T
  0.2500001764476025  0.7499999361605806  0.6486522019906514   T   T   T
  0.3437808813539168  0.8750046210319339  0.7184620061434286   T   T   T
  0.6562189117844497  0.8750055628654636  0.7184614749595901   T   T   T
  0.4999995659395930  0.7500000369610968  0.6711623226935275   T   T   T
  0.5000003518474914  0.7500010329594564  0.7546422320288413   T   T   T
  0.8478471838984589  0.1250000000000000  0.2872483713228746   F   F   F
  0.1521528161015411  0.1250000000000000  0.2872483713228746   F   F   F
  0.0000000000000000  0.0000000000000000  0.2456140758511438   F   F   F
  0.0000000000000000  0.0000000000000000  0.3288826667946125   F   F   F
  0.0978471838984589  0.1250000000000000  0.3936241856614373   F   F   F
  0.9021528161015411  0.1250000000000000  0.3936241856614373   F   F   F
  0.7500000000000000  0.0000000000000000  0.3519898901897065   F   F   F
  0.7500000000000000  0.0000000000000000  0.4352584811331752   F   F   F
  0.8478471838984589  0.1250000000000000  0.4999999999999999   F   F   F
  0.1521528161015411  0.1250000000000000  0.4999999999999999   F   F   F
  0.0000000000000000  0.0000000000000000  0.4583657045282692   F   F   F
  0.0000000000000000  0.0000000000000000  0.5416342954717308   F   F   F
  0.1000455192418439  0.1250542861537568  0.6068187582565313   T   T   T
  0.8999555033993188  0.1250542892629495  0.6068187609994431   T   T   T
  0.7500003184881200  0.9999996918772803  0.5652228832961756   T   T   T
  0.7500004999961787  0.9999995458778521  0.6486055564538916   T   T   T
  0.8437801967595199  0.1249946338664636  0.7184619117941983   T   T   T
  0.1562193108232429  0.1249952921704573  0.7184619667604897   T   T   T
  0.0000002331317264  0.9999996069296206  0.6710805584596947   T   T   T
  0.9999997995996538  0.9999994765678791  0.7546143779077948   T   T   T
  0.8478471838984589  0.3750000000000000  0.2872483713228746   F   F   F
  0.1521528161015411  0.3750000000000000  0.2872483713228746   F   F   F
  0.0000000000000000  0.2500000000000000  0.2456140758511438   F   F   F
  0.0000000000000000  0.2500000000000000  0.3288826667946125   F   F   F
  0.0978471838984589  0.3750000000000000  0.3936241856614373   F   F   F
  0.9021528161015411  0.3750000000000000  0.3936241856614373   F   F   F
  0.7500000000000000  0.2500000000000000  0.3519898901897065   F   F   F
  0.7500000000000000  0.2500000000000000  0.4352584811331752   F   F   F
  0.8478471838984589  0.3750000000000000  0.4999999999999999   F   F   F
  0.1521528161015411  0.3750000000000000  0.4999999999999999   F   F   F
  0.0000000000000000  0.2500000000000000  0.4583657045282692   F   F   F
  0.0000000000000000  0.2500000000000000  0.5416342954717308   F   F   F
  0.1000452083986803  0.3749453449141011  0.6068187530193773   T   T   T
  0.8999551297866103  0.3749454440714942  0.6068187647445976   T   T   T
  0.7500001664317579  0.2500000307464363  0.5652313894375924   T   T   T
  0.7500001959352438  0.2500002703104824  0.6486516317301136   T   T   T
  0.8437813050233949  0.3750038064686591  0.7184619833662563   T   T   T
  0.1562193770651069  0.3750048738602001  0.7184619852169079   T   T   T
  0.0000002245406845  0.2499997575784129  0.6711624514215249   T   T   T
  0.0000004003656539  0.2500001010990790  0.7546422260183494   T   T   T
  0.8478471838984589  0.6250000000000000  0.2872483713228746   F   F   F
  0.1521528161015411  0.6250000000000000  0.2872483713228746   F   F   F
  0.0000000000000000  0.5000000000000000  0.2456140758511438   F   F   F
  0.0000000000000000  0.5000000000000000  0.3288826667946125   F   F   F
  0.0978471838984589  0.6250000000000000  0.3936241856614373   F   F   F
  0.9021528161015411  0.6250000000000000  0.3936241856614373   F   F   F
  0.7500000000000000  0.5000000000000000  0.3519898901897065   F   F   F
  0.7500000000000000  0.5000000000000000  0.4352584811331752   F   F   F
  0.8478471838984589  0.6250000000000000  0.4999999999999999   F   F   F
  0.1521528161015411  0.6250000000000000  0.4999999999999999   F   F   F
  0.0000000000000000  0.5000000000000000  0.4583657045282692   F   F   F
  0.0000000000000000  0.5000000000000000  0.5416342954717308   F   F   F
  0.1000451394285307  0.6250545177714738  0.6068187621943150   T   T   T
  0.8999548939032210  0.6250538678536678  0.6068190102925813   T   T   T
  0.7500000066339597  0.5000008139394604  0.5652231278569535   T   T   T
  0.7500001402614507  0.5000000665462019  0.6486047911215927   T   T   T
  0.8437806696861029  0.6249978458688680  0.7184614537100799   T   T   T
  0.1562198180469926  0.6249946236601870  0.7184619464419347   T   T   T
  0.0000002265298851  0.4999994045204511  0.6710805223106202   T   T   T
  0.9999999679176058  0.4999994523752482  0.7546144962764538   T   T   T
  0.8478471838984589  0.8750000000000000  0.2872483713228746   F   F   F
  0.1521528161015411  0.8750000000000000  0.2872483713228746   F   F   F
  0.0000000000000000  0.7500000000000000  0.2456140758511438   F   F   F
  0.0000000000000000  0.7500000000000000  0.3288826667946125   F   F   F
  0.0978471838984589  0.8750000000000000  0.3936241856614373   F   F   F
  0.9021528161015411  0.8750000000000000  0.3936241856614373   F   F   F
  0.7500000000000000  0.7500000000000000  0.3519898901897065   F   F   F
  0.7500000000000000  0.7500000000000000  0.4352584811331752   F   F   F
  0.8478471838984589  0.8750000000000000  0.4999999999999999   F   F   F
  0.1521528161015411  0.8750000000000000  0.4999999999999999   F   F   F
  0.0000000000000000  0.7500000000000000  0.4583657045282692   F   F   F
  0.0000000000000000  0.7500000000000000  0.5416342954717308   F   F   F
  0.1000455070594986  0.8749452458378048  0.6068187305502516   T   T   T
  0.8999553213981890  0.8749459595398438  0.6068188856013026   T   T   T
  0.7500106158813421  0.7500001102610501  0.5652317834465190   T   T   T
  0.7500000100268797  0.7500007329594425  0.6486505926089836   T   T   T
  0.8437812109032552  0.8750058718204305  0.7184617412925501   T   T   T
  0.1562190793739196  0.8750045960109666  0.7184619989726750   T   T   T
  0.0000001478144810  0.7500002021731018  0.6711623136724106   T   T   T
  0.9999999295657132  0.7500007089346288  0.7546421946316673   T   T   T
