Mg  O                                   
   1.00000000000000     
    12.6193707943346283    0.0000000000000000    0.0000000000000000
     0.0000000000000000   12.6193707943346283    0.0000000000000000
     0.0000000000000000    0.0000000000000000   23.4129138628897522
   Mg   O 
    90    90
Selective dynamics
Direct
  0.1666666666666643  0.0000000000000000  0.3203360352291611   F   F   F
  0.0000000000000000  0.1666666666666643  0.3203360352291611   F   F   F
  0.1666666666666643  0.1666666666666643  0.4101680176145805   F   F   F
  0.0000000000000000  0.0000000000000000  0.4101680176145805   F   F   F
  0.1666666666666643  0.0000000000000000  0.5000000000000000   F   F   F
  0.0000000000000000  0.1666666666666643  0.5000000000000000   F   F   F
  0.1666665230981366  0.1666666161738561  0.5901973079798779   T   T   T
  0.3333331961120010  0.9999999213613080  0.5901970867191864   T   T   T
  0.1666660250837282  0.3333329912895806  0.6792953148695702   T   T   T
  0.9999996461145173  0.1666662513236190  0.6792943819974084   T   T   T
  0.1666666666666643  0.3333333333333357  0.3203360352291611   F   F   F
  0.0000000000000000  0.5000000000000000  0.3203360352291611   F   F   F
  0.1666666666666643  0.5000000000000000  0.4101680176145805   F   F   F
  0.0000000000000000  0.3333333333333357  0.4101680176145805   F   F   F
  0.1666666666666643  0.3333333333333357  0.5000000000000000   F   F   F
  0.0000000000000000  0.5000000000000000  0.5000000000000000   F   F   F
  0.1666665230981366  0.4999999495071918  0.5901973079798779   T   T   T
  0.3333331961120010  0.3333332546946437  0.5901970867191864   T   T   T
  0.1666660250837282  0.6666663246229163  0.6792953148695702   T   T   T
  0.9999996461145173  0.4999995846569476  0.6792943819974084   T   T   T
  0.1666666666666643  0.6666666666666643  0.3203360352291611   F   F   F
  0.0000000000000000  0.8333333333333357  0.3203360352291611   F   F   F
  0.1666666666666643  0.8333333333333357  0.4101680176145805   F   F   F
  0.0000000000000000  0.6666666666666643  0.4101680176145805   F   F   F
  0.1666666666666643  0.6666666666666643  0.5000000000000000   F   F   F
  0.0000000000000000  0.8333333333333357  0.5000000000000000   F   F   F
  0.1666665230981366  0.8333332828405204  0.5901973079798779   T   T   T
  0.3333331961120010  0.6666665880279723  0.5901970867191864   T   T   T
  0.1666660250837282  0.9999996579562520  0.6792953148695702   T   T   T
  0.9999996461145173  0.8333329179902833  0.6792943819974084   T   T   T
  0.5000000000000000  0.0000000000000000  0.3203360352291611   F   F   F
  0.3333333333333357  0.1666666666666643  0.3203360352291611   F   F   F
  0.5000000000000000  0.1666666666666643  0.4101680176145805   F   F   F
  0.3333333333333357  0.0000000000000000  0.4101680176145805   F   F   F
  0.5000000000000000  0.0000000000000000  0.5000000000000000   F   F   F
  0.3333333333333357  0.1666666666666643  0.5000000000000000   F   F   F
  0.4999998564314723  0.1666666161738561  0.5901973079798779   T   T   T
  0.6666665294453367  0.9999999213613080  0.5901970867191864   T   T   T
  0.4999993584170568  0.3333329912895806  0.6792953148695702   T   T   T
  0.3333329794478530  0.1666662513236190  0.6792943819974084   T   T   T
  0.5000000000000000  0.3333333333333357  0.3203360352291611   F   F   F
  0.3333333333333357  0.5000000000000000  0.3203360352291611   F   F   F
  0.5000000000000000  0.5000000000000000  0.4101680176145805   F   F   F
  0.3333333333333357  0.3333333333333357  0.4101680176145805   F   F   F
  0.5000000000000000  0.3333333333333357  0.5000000000000000   F   F   F
  0.3333333333333357  0.5000000000000000  0.5000000000000000   F   F   F
  0.4999998564314723  0.4999999495071918  0.5901973079798779   T   T   T
  0.6666665294453367  0.3333332546946437  0.5901970867191864   T   T   T
  0.4999993584170568  0.6666663246229163  0.6792953148695702   T   T   T
  0.3333329794478530  0.4999995846569476  0.6792943819974084   T   T   T
  0.5000000000000000  0.6666666666666643  0.3203360352291611   F   F   F
  0.3333333333333357  0.8333333333333357  0.3203360352291611   F   F   F
  0.5000000000000000  0.8333333333333357  0.4101680176145805   F   F   F
  0.3333333333333357  0.6666666666666643  0.4101680176145805   F   F   F
  0.5000000000000000  0.6666666666666643  0.5000000000000000   F   F   F
  0.3333333333333357  0.8333333333333357  0.5000000000000000   F   F   F
  0.4999998564314723  0.8333332828405204  0.5901973079798779   T   T   T
  0.6666665294453367  0.6666665880279723  0.5901970867191864   T   T   T
  0.4999993584170568  0.9999996579562520  0.6792953148695702   T   T   T
  0.3333329794478530  0.8333329179902833  0.6792943819974084   T   T   T
  0.8333333333333357  0.0000000000000000  0.3203360352291611   F   F   F
  0.6666666666666643  0.1666666666666643  0.3203360352291611   F   F   F
  0.8333333333333357  0.1666666666666643  0.4101680176145805   F   F   F
  0.6666666666666643  0.0000000000000000  0.4101680176145805   F   F   F
  0.8333333333333357  0.0000000000000000  0.5000000000000000   F   F   F
  0.6666666666666643  0.1666666666666643  0.5000000000000000   F   F   F
  0.8333331897648080  0.1666666161738561  0.5901973079798779   T   T   T
  0.9999998627786724  0.9999999213613080  0.5901970867191864   T   T   T
  0.8333326917503925  0.3333329912895806  0.6792953148695702   T   T   T
  0.6666663127811816  0.1666662513236190  0.6792943819974084   T   T   T
  0.8333333333333357  0.3333333333333357  0.3203360352291611   F   F   F
  0.6666666666666643  0.5000000000000000  0.3203360352291611   F   F   F
  0.8333333333333357  0.5000000000000000  0.4101680176145805   F   F   F
  0.6666666666666643  0.3333333333333357  0.4101680176145805   F   F   F
  0.8333333333333357  0.3333333333333357  0.5000000000000000   F   F   F
  0.6666666666666643  0.5000000000000000  0.5000000000000000   F   F   F
  0.8333331897648080  0.4999999495071918  0.5901973079798779   T   T   T
  0.9999998627786724  0.3333332546946437  0.5901970867191864   T   T   T
  0.8333326917503925  0.6666663246229163  0.6792953148695702   T   T   T
  0.6666663127811816  0.4999995846569476  0.6792943819974084   T   T   T
  0.8333333333333357  0.6666666666666643  0.3203360352291611   F   F   F
  0.6666666666666643  0.8333333333333357  0.3203360352291611   F   F   F
  0.8333333333333357  0.8333333333333357  0.4101680176145805   F   F   F
  0.6666666666666643  0.6666666666666643  0.4101680176145805   F   F   F
  0.8333333333333357  0.6666666666666643  0.5000000000000000   F   F   F
  0.6666666666666643  0.8333333333333357  0.5000000000000000   F   F   F
  0.8333331897648080  0.8333332828405204  0.5901973079798779   T   T   T
  0.9999998627786724  0.6666665880279723  0.5901970867191864   T   T   T
  0.8333326917503925  0.9999996579562520  0.6792953148695702   T   T   T
  0.6666663127811816  0.8333329179902833  0.6792943819974084   T   T   T
  0.1666666666666643  0.0000000000000000  0.4101680176145805   F   F   F
  0.0000000000000000  0.1666666666666643  0.4101680176145805   F   F   F
  0.1666666666666643  0.1666666666666643  0.3203360352291611   F   F   F
  0.0000000000000000  0.0000000000000000  0.3203360352291611   F   F   F
  0.1666661636943658  0.9999995357471860  0.5899858841044505   T   T   T
  0.9999996326799092  0.1666659665596484  0.5899853482225978   T   T   T
  0.1666666666666643  0.1666666666666643  0.5000000000000000   F   F   F
  0.0000000000000000  0.0000000000000000  0.5000000000000000   F   F   F
  0.1666660865133238  0.1666659557386723  0.6810581399124871   T   T   T
  0.9999994139964130  0.9999995611016459  0.6810580610364241   T   T   T
  0.1666666666666643  0.3333333333333357  0.4101680176145805   F   F   F
  0.0000000000000000  0.5000000000000000  0.4101680176145805   F   F   F
  0.1666666666666643  0.5000000000000000  0.3203360352291611   F   F   F
  0.0000000000000000  0.3333333333333357  0.3203360352291611   F   F   F
  0.1666661636943658  0.3333328690805217  0.5899858841044505   T   T   T
  0.9999996326799092  0.4999992998929770  0.5899853482225978   T   T   T
  0.1666666666666643  0.5000000000000000  0.5000000000000000   F   F   F
  0.0000000000000000  0.3333333333333357  0.5000000000000000   F   F   F
  0.1666660865133238  0.4999992890720080  0.6810581399124871   T   T   T
  0.9999994139964130  0.3333328944349745  0.6810580610364241   T   T   T
  0.1666666666666643  0.6666666666666643  0.4101680176145805   F   F   F
  0.0000000000000000  0.8333333333333357  0.4101680176145805   F   F   F
  0.1666666666666643  0.8333333333333357  0.3203360352291611   F   F   F
  0.0000000000000000  0.6666666666666643  0.3203360352291611   F   F   F
  0.1666661636943658  0.6666662024138574  0.5899858841044505   T   T   T
  0.9999996326799092  0.8333326332263127  0.5899853482225978   T   T   T
  0.1666666666666643  0.8333333333333357  0.5000000000000000   F   F   F
  0.0000000000000000  0.6666666666666643  0.5000000000000000   F   F   F
  0.1666660865133238  0.8333326224053437  0.6810581399124871   T   T   T
  0.9999994139964130  0.6666662277683102  0.6810580610364241   T   T   T
  0.5000000000000000  0.0000000000000000  0.4101680176145805   F   F   F
  0.3333333333333357  0.1666666666666643  0.4101680176145805   F   F   F
  0.5000000000000000  0.1666666666666643  0.3203360352291611   F   F   F
  0.3333333333333357  0.0000000000000000  0.3203360352291611   F   F   F
  0.4999994970277015  0.9999995357471860  0.5899858841044505   T   T   T
  0.3333329660132378  0.1666659665596484  0.5899853482225978   T   T   T
  0.5000000000000000  0.1666666666666643  0.5000000000000000   F   F   F
  0.3333333333333357  0.0000000000000000  0.5000000000000000   F   F   F
  0.4999994198466595  0.1666659557386723  0.6810581399124871   T   T   T
  0.3333327473297416  0.9999995611016459  0.6810580610364241   T   T   T
  0.5000000000000000  0.3333333333333357  0.4101680176145805   F   F   F
  0.3333333333333357  0.5000000000000000  0.4101680176145805   F   F   F
  0.5000000000000000  0.5000000000000000  0.3203360352291611   F   F   F
  0.3333333333333357  0.3333333333333357  0.3203360352291611   F   F   F
  0.4999994970277015  0.3333328690805217  0.5899858841044505   T   T   T
  0.3333329660132378  0.4999992998929770  0.5899853482225978   T   T   T
  0.5000000000000000  0.5000000000000000  0.5000000000000000   F   F   F
  0.3333333333333357  0.3333333333333357  0.5000000000000000   F   F   F
  0.4999994198466595  0.4999992890720080  0.6810581399124871   T   T   T
  0.3333327473297416  0.3333328944349745  0.6810580610364241   T   T   T
  0.5000000000000000  0.6666666666666643  0.4101680176145805   F   F   F
  0.3333333333333357  0.8333333333333357  0.4101680176145805   F   F   F
  0.5000000000000000  0.8333333333333357  0.3203360352291611   F   F   F
  0.3333333333333357  0.6666666666666643  0.3203360352291611   F   F   F
  0.4999994970277015  0.6666662024138574  0.5899858841044505   T   T   T
  0.3333329660132378  0.8333326332263127  0.5899853482225978   T   T   T
  0.5000000000000000  0.8333333333333357  0.5000000000000000   F   F   F
  0.3333333333333357  0.6666666666666643  0.5000000000000000   F   F   F
  0.4999994198466595  0.8333326224053437  0.6810581399124871   T   T   T
  0.3333327473297416  0.6666662277683102  0.6810580610364241   T   T   T
  0.8333333333333357  0.0000000000000000  0.4101680176145805   F   F   F
  0.6666666666666643  0.1666666666666643  0.4101680176145805   F   F   F
  0.8333333333333357  0.1666666666666643  0.3203360352291611   F   F   F
  0.6666666666666643  0.0000000000000000  0.3203360352291611   F   F   F
  0.8333328303610372  0.9999995357471860  0.5899858841044505   T   T   T
  0.6666662993465735  0.1666659665596484  0.5899853482225978   T   T   T
  0.8333333333333357  0.1666666666666643  0.5000000000000000   F   F   F
  0.6666666666666643  0.0000000000000000  0.5000000000000000   F   F   F
  0.8333327531799881  0.1666659557386723  0.6810581399124871   T   T   T
  0.6666660806630773  0.9999995611016459  0.6810580610364241   T   T   T
  0.8333333333333357  0.3333333333333357  0.4101680176145805   F   F   F
  0.6666666666666643  0.5000000000000000  0.4101680176145805   F   F   F
  0.8333333333333357  0.5000000000000000  0.3203360352291611   F   F   F
  0.6666666666666643  0.3333333333333357  0.3203360352291611   F   F   F
  0.8333328303610372  0.3333328690805217  0.5899858841044505   T   T   T
  0.6666662993465735  0.4999992998929770  0.5899853482225978   T   T   T
  0.8333333333333357  0.5000000000000000  0.5000000000000000   F   F   F
  0.6666666666666643  0.3333333333333357  0.5000000000000000   F   F   F
  0.8333327531799881  0.4999992890720080  0.6810581399124871   T   T   T
  0.6666660806630773  0.3333328944349745  0.6810580610364241   T   T   T
  0.8333333333333357  0.6666666666666643  0.4101680176145805   F   F   F
  0.6666666666666643  0.8333333333333357  0.4101680176145805   F   F   F
  0.8333333333333357  0.8333333333333357  0.3203360352291611   F   F   F
  0.6666666666666643  0.6666666666666643  0.3203360352291611   F   F   F
  0.8333328303610372  0.6666662024138574  0.5899858841044505   T   T   T
  0.6666662993465735  0.8333326332263127  0.5899853482225978   T   T   T
  0.8333333333333357  0.8333333333333357  0.5000000000000000   F   F   F
  0.6666666666666643  0.6666666666666643  0.5000000000000000   F   F   F
  0.8333327531799881  0.8333326224053437  0.6810581399124871   T   T   T
  0.6666660806630773  0.6666662277683102  0.6810580610364241   T   T   T
 
  0.00000000E+00  0.00000000E+00  0.00000000E+00
  0.00000000E+00  0.00000000E+00  0.00000000E+00
  0.00000000E+00  0.00000000E+00  0.00000000E+00
  0.00000000E+00  0.00000000E+00  0.00000000E+00
  0.00000000E+00  0.00000000E+00  0.00000000E+00
  0.00000000E+00  0.00000000E+00  0.00000000E+00
  0.00000000E+00  0.00000000E+00  0.00000000E+00
  0.00000000E+00  0.00000000E+00  0.00000000E+00
  0.00000000E+00  0.00000000E+00  0.00000000E+00
  0.00000000E+00  0.00000000E+00  0.00000000E+00
  0.00000000E+00  0.00000000E+00  0.00000000E+00
  0.00000000E+00  0.00000000E+00  0.00000000E+00
  0.00000000E+00  0.00000000E+00  0.00000000E+00
  0.00000000E+00  0.00000000E+00  0.00000000E+00
  0.00000000E+00  0.00000000E+00  0.00000000E+00
  0.00000000E+00  0.00000000E+00  0.00000000E+00
  0.00000000E+00  0.00000000E+00  0.00000000E+00
  0.00000000E+00  0.00000000E+00  0.00000000E+00
  0.00000000E+00  0.00000000E+00  0.00000000E+00
  0.00000000E+00  0.00000000E+00  0.00000000E+00
  0.00000000E+00  0.00000000E+00  0.00000000E+00
  0.00000000E+00  0.00000000E+00  0.00000000E+00
  0.00000000E+00  0.00000000E+00  0.00000000E+00
  0.00000000E+00  0.00000000E+00  0.00000000E+00
  0.00000000E+00  0.00000000E+00  0.00000000E+00
  0.00000000E+00  0.00000000E+00  0.00000000E+00
  0.00000000E+00  0.00000000E+00  0.00000000E+00
  0.00000000E+00  0.00000000E+00  0.00000000E+00
  0.00000000E+00  0.00000000E+00  0.00000000E+00
  0.00000000E+00  0.00000000E+00  0.00000000E+00
  0.00000000E+00  0.00000000E+00  0.00000000E+00
  0.00000000E+00  0.00000000E+00  0.00000000E+00
  0.00000000E+00  0.00000000E+00  0.00000000E+00
  0.00000000E+00  0.00000000E+00  0.00000000E+00
  0.00000000E+00  0.00000000E+00  0.00000000E+00
  0.00000000E+00  0.00000000E+00  0.00000000E+00
  0.00000000E+00  0.00000000E+00  0.00000000E+00
  0.00000000E+00  0.00000000E+00  0.00000000E+00
  0.00000000E+00  0.00000000E+00  0.00000000E+00
  0.00000000E+00  0.00000000E+00  0.00000000E+00
  0.00000000E+00  0.00000000E+00  0.00000000E+00
  0.00000000E+00  0.00000000E+00  0.00000000E+00
  0.00000000E+00  0.00000000E+00  0.00000000E+00
  0.00000000E+00  0.00000000E+00  0.00000000E+00
  0.00000000E+00  0.00000000E+00  0.00000000E+00
  0.00000000E+00  0.00000000E+00  0.00000000E+00
  0.00000000E+00  0.00000000E+00  0.00000000E+00
  0.00000000E+00  0.00000000E+00  0.00000000E+00
  0.00000000E+00  0.00000000E+00  0.00000000E+00
  0.00000000E+00  0.00000000E+00  0.00000000E+00
  0.00000000E+00  0.00000000E+00  0.00000000E+00
  0.00000000E+00  0.00000000E+00  0.00000000E+00
  0.00000000E+00  0.00000000E+00  0.00000000E+00
  0.00000000E+00  0.00000000E+00  0.00000000E+00
  0.00000000E+00  0.00000000E+00  0.00000000E+00
  0.00000000E+00  0.00000000E+00  0.00000000E+00
  0.00000000E+00  0.00000000E+00  0.00000000E+00
  0.00000000E+00  0.00000000E+00  0.00000000E+00
  0.00000000E+00  0.00000000E+00  0.00000000E+00
  0.00000000E+00  0.00000000E+00  0.00000000E+00
  0.00000000E+00  0.00000000E+00  0.00000000E+00
  0.00000000E+00  0.00000000E+00  0.00000000E+00
  0.00000000E+00  0.00000000E+00  0.00000000E+00
  0.00000000E+00  0.00000000E+00  0.00000000E+00
  0.00000000E+00  0.00000000E+00  0.00000000E+00
  0.00000000E+00  0.00000000E+00  0.00000000E+00
  0.00000000E+00  0.00000000E+00  0.00000000E+00
  0.00000000E+00  0.00000000E+00  0.00000000E+00
  0.00000000E+00  0.00000000E+00  0.00000000E+00
  0.00000000E+00  0.00000000E+00  0.00000000E+00
  0.00000000E+00  0.00000000E+00  0.00000000E+00
  0.00000000E+00  0.00000000E+00  0.00000000E+00
  0.00000000E+00  0.00000000E+00  0.00000000E+00
  0.00000000E+00  0.00000000E+00  0.00000000E+00
  0.00000000E+00  0.00000000E+00  0.00000000E+00
  0.00000000E+00  0.00000000E+00  0.00000000E+00
  0.00000000E+00  0.00000000E+00  0.00000000E+00
  0.00000000E+00  0.00000000E+00  0.00000000E+00
  0.00000000E+00  0.00000000E+00  0.00000000E+00
  0.00000000E+00  0.00000000E+00  0.00000000E+00
  0.00000000E+00  0.00000000E+00  0.00000000E+00
  0.00000000E+00  0.00000000E+00  0.00000000E+00
  0.00000000E+00  0.00000000E+00  0.00000000E+00
  0.00000000E+00  0.00000000E+00  0.00000000E+00
  0.00000000E+00  0.00000000E+00  0.00000000E+00
  0.00000000E+00  0.00000000E+00  0.00000000E+00
  0.00000000E+00  0.00000000E+00  0.00000000E+00
  0.00000000E+00  0.00000000E+00  0.00000000E+00
  0.00000000E+00  0.00000000E+00  0.00000000E+00
  0.00000000E+00  0.00000000E+00  0.00000000E+00
  0.00000000E+00  0.00000000E+00  0.00000000E+00
  0.00000000E+00  0.00000000E+00  0.00000000E+00
  0.00000000E+00  0.00000000E+00  0.00000000E+00
  0.00000000E+00  0.00000000E+00  0.00000000E+00
  0.00000000E+00  0.00000000E+00  0.00000000E+00
  0.00000000E+00  0.00000000E+00  0.00000000E+00
  0.00000000E+00  0.00000000E+00  0.00000000E+00
  0.00000000E+00  0.00000000E+00  0.00000000E+00
  0.00000000E+00  0.00000000E+00  0.00000000E+00
  0.00000000E+00  0.00000000E+00  0.00000000E+00
  0.00000000E+00  0.00000000E+00  0.00000000E+00
  0.00000000E+00  0.00000000E+00  0.00000000E+00
  0.00000000E+00  0.00000000E+00  0.00000000E+00
  0.00000000E+00  0.00000000E+00  0.00000000E+00
  0.00000000E+00  0.00000000E+00  0.00000000E+00
  0.00000000E+00  0.00000000E+00  0.00000000E+00
  0.00000000E+00  0.00000000E+00  0.00000000E+00
  0.00000000E+00  0.00000000E+00  0.00000000E+00
  0.00000000E+00  0.00000000E+00  0.00000000E+00
  0.00000000E+00  0.00000000E+00  0.00000000E+00
  0.00000000E+00  0.00000000E+00  0.00000000E+00
  0.00000000E+00  0.00000000E+00  0.00000000E+00
  0.00000000E+00  0.00000000E+00  0.00000000E+00
  0.00000000E+00  0.00000000E+00  0.00000000E+00
  0.00000000E+00  0.00000000E+00  0.00000000E+00
  0.00000000E+00  0.00000000E+00  0.00000000E+00
  0.00000000E+00  0.00000000E+00  0.00000000E+00
  0.00000000E+00  0.00000000E+00  0.00000000E+00
  0.00000000E+00  0.00000000E+00  0.00000000E+00
  0.00000000E+00  0.00000000E+00  0.00000000E+00
  0.00000000E+00  0.00000000E+00  0.00000000E+00
  0.00000000E+00  0.00000000E+00  0.00000000E+00
  0.00000000E+00  0.00000000E+00  0.00000000E+00
  0.00000000E+00  0.00000000E+00  0.00000000E+00
  0.00000000E+00  0.00000000E+00  0.00000000E+00
  0.00000000E+00  0.00000000E+00  0.00000000E+00
  0.00000000E+00  0.00000000E+00  0.00000000E+00
  0.00000000E+00  0.00000000E+00  0.00000000E+00
  0.00000000E+00  0.00000000E+00  0.00000000E+00
  0.00000000E+00  0.00000000E+00  0.00000000E+00
  0.00000000E+00  0.00000000E+00  0.00000000E+00
  0.00000000E+00  0.00000000E+00  0.00000000E+00
  0.00000000E+00  0.00000000E+00  0.00000000E+00
  0.00000000E+00  0.00000000E+00  0.00000000E+00
  0.00000000E+00  0.00000000E+00  0.00000000E+00
  0.00000000E+00  0.00000000E+00  0.00000000E+00
  0.00000000E+00  0.00000000E+00  0.00000000E+00
  0.00000000E+00  0.00000000E+00  0.00000000E+00
  0.00000000E+00  0.00000000E+00  0.00000000E+00
  0.00000000E+00  0.00000000E+00  0.00000000E+00
  0.00000000E+00  0.00000000E+00  0.00000000E+00
  0.00000000E+00  0.00000000E+00  0.00000000E+00
  0.00000000E+00  0.00000000E+00  0.00000000E+00
  0.00000000E+00  0.00000000E+00  0.00000000E+00
  0.00000000E+00  0.00000000E+00  0.00000000E+00
  0.00000000E+00  0.00000000E+00  0.00000000E+00
  0.00000000E+00  0.00000000E+00  0.00000000E+00
  0.00000000E+00  0.00000000E+00  0.00000000E+00
  0.00000000E+00  0.00000000E+00  0.00000000E+00
  0.00000000E+00  0.00000000E+00  0.00000000E+00
  0.00000000E+00  0.00000000E+00  0.00000000E+00
  0.00000000E+00  0.00000000E+00  0.00000000E+00
  0.00000000E+00  0.00000000E+00  0.00000000E+00
  0.00000000E+00  0.00000000E+00  0.00000000E+00
  0.00000000E+00  0.00000000E+00  0.00000000E+00
  0.00000000E+00  0.00000000E+00  0.00000000E+00
  0.00000000E+00  0.00000000E+00  0.00000000E+00
  0.00000000E+00  0.00000000E+00  0.00000000E+00
  0.00000000E+00  0.00000000E+00  0.00000000E+00
  0.00000000E+00  0.00000000E+00  0.00000000E+00
  0.00000000E+00  0.00000000E+00  0.00000000E+00
  0.00000000E+00  0.00000000E+00  0.00000000E+00
  0.00000000E+00  0.00000000E+00  0.00000000E+00
  0.00000000E+00  0.00000000E+00  0.00000000E+00
  0.00000000E+00  0.00000000E+00  0.00000000E+00
  0.00000000E+00  0.00000000E+00  0.00000000E+00
  0.00000000E+00  0.00000000E+00  0.00000000E+00
  0.00000000E+00  0.00000000E+00  0.00000000E+00
  0.00000000E+00  0.00000000E+00  0.00000000E+00
  0.00000000E+00  0.00000000E+00  0.00000000E+00
  0.00000000E+00  0.00000000E+00  0.00000000E+00
  0.00000000E+00  0.00000000E+00  0.00000000E+00
  0.00000000E+00  0.00000000E+00  0.00000000E+00
  0.00000000E+00  0.00000000E+00  0.00000000E+00
  0.00000000E+00  0.00000000E+00  0.00000000E+00
  0.00000000E+00  0.00000000E+00  0.00000000E+00
  0.00000000E+00  0.00000000E+00  0.00000000E+00
  0.00000000E+00  0.00000000E+00  0.00000000E+00
  0.00000000E+00  0.00000000E+00  0.00000000E+00
  0.00000000E+00  0.00000000E+00  0.00000000E+00
