Ti2 O4                                  
   1.00000000000000     
     4.5828483578237442    0.0000000000000000    0.0000000000000000
     0.0000000000000000    4.5828483578237442    0.0000000000000000
     0.0000000000000000    0.0000000000000000    2.9451289202860580
   Ti   O 
     2     4
Direct
  0.5000000000000000  0.5000000000000000  0.5000000000000000
 -0.0000000000000000 -0.0000000000000000 -0.0000000000000000
  0.1948345674149461  0.8051654325850539  0.5000000000000000
  0.8051654325850539  0.1948345674149461  0.5000000000000000
  0.3051654325850539  0.3051654325850539 -0.0000000000000000
  0.6948345674149461  0.6948345674149461  0.0000000000000000
 
  0.00000000E+00  0.00000000E+00  0.00000000E+00
  0.00000000E+00  0.00000000E+00  0.00000000E+00
  0.00000000E+00  0.00000000E+00  0.00000000E+00
  0.00000000E+00  0.00000000E+00  0.00000000E+00
  0.00000000E+00  0.00000000E+00  0.00000000E+00
  0.00000000E+00  0.00000000E+00  0.00000000E+00
