SYSTEM=MgO-rocksalt
ISMEAR=0
SIGMA=0.05
EDIFF=1E-6
ALGO=ALL
ISTART=1
IBRION=2
NSW=200
EDIFFG=-0.01
ISIF=3

ENCUT=800
PREC=Normal  #default (Normal) usually safe, structures/energies change little with Accurate
LASPH=.TRUE.
LREAL=.FALSE.
ISPIN=1
NELM=60
NELMIN=4
NCORE=20

LWAVE=.TRUE.
LCHARG=.TRUE.
LORBIT=11

LHFCALC  = .TRUE.
HFSCREEN = 0.2 
