 O Ti                                   
   1.00000000000000     
    13.0160748915413169    0.0000000000000000    0.0000000000000000
     0.0000000000000000   11.8443707738385253    0.0000000000000000
     0.0000000000000000    0.0000000000000000   55.5602570280096657
   O    Ti
   160    80
Selective dynamics
Direct
  0.0977323101498797  0.1250000000000000  0.3828652386814966   F   F   F
  0.4022676898501203  0.1250000000000000  0.3828652386814966   F   F   F
  0.2500000000000000  0.0000000000000000  0.3599695370364699   F   F   F
  0.2500000000000000  0.0000000000000000  0.4057609403265232   F   F   F
  0.3477323101498797  0.1250000000000000  0.4414326193407447   F   F   F
  0.1522676898501203  0.1250000000000000  0.4414326193407447   F   F   F
  0.0000000000000000  0.0000000000000000  0.4185369176957252   F   F   F
  0.0000000000000000  0.0000000000000000  0.4643283209857714   F   F   F
  0.0977323101498797  0.1250000000000000  0.5000000000000000   F   F   F
  0.4022676898501203  0.1250000000000000  0.5000000000000000   F   F   F
  0.2500000000000000  0.0000000000000000  0.4771042983549734   F   F   F
  0.2500000000000000  0.0000000000000000  0.5228957016450266   F   F   F
  0.3499605291145045  0.1250000121970771  0.5588361803677913   T   T   T
  0.1500417087196482  0.1250000203028492  0.5588362781762797   T   T   T
  0.0000006479079531  0.9999999942022555  0.5359432284801002   T   T   T
  0.0000007263748998  0.0000000308734087  0.5818121309130007   T   T   T
  0.0936352348644718  0.1249999508623034  0.6201202789700915   T   T   T
  0.4063657135038952  0.1249999589418351  0.6201203189065154   T   T   T
  0.2500005756684516  0.4999999900765957  0.5942581100491822   T   T   T
  0.2500002357844266  0.0000000846242969  0.6401254697334195   T   T   T
  0.0977323101498797  0.3750000000000000  0.3828652386814966   F   F   F
  0.4022676898501203  0.3750000000000000  0.3828652386814966   F   F   F
  0.2500000000000000  0.2500000000000000  0.3599695370364699   F   F   F
  0.2500000000000000  0.2500000000000000  0.4057609403265232   F   F   F
  0.3477323101498797  0.3750000000000000  0.4414326193407447   F   F   F
  0.1522676898501203  0.3750000000000000  0.4414326193407447   F   F   F
  0.0000000000000000  0.2500000000000000  0.4185369176957252   F   F   F
  0.0000000000000000  0.2500000000000000  0.4643283209857714   F   F   F
  0.0977323101498797  0.3750000000000000  0.5000000000000000   F   F   F
  0.4022676898501203  0.3750000000000000  0.5000000000000000   F   F   F
  0.2500000000000000  0.2500000000000000  0.4771042983549734   F   F   F
  0.2500000000000000  0.2500000000000000  0.5228957016450266   F   F   F
  0.3499605231504148  0.3749999626974443  0.5588361834705893   T   T   T
  0.1500417129587461  0.3749999763264427  0.5588362816986958   T   T   T
  0.0000006594552815  0.2500000187478264  0.5359432212085835   T   T   T
  0.0000007413255503  0.2499999633234111  0.5818121138137471   T   T   T
  0.0936352400005589  0.3750000458987301  0.6201202577877041   T   T   T
  0.4063656645372475  0.3750000649534613  0.6201202951225966   T   T   T
  0.2500005815060220  0.2499999542700806  0.5942580855056079   T   T   T
  0.2500002067803919  0.2499999169806486  0.6401254208189755   T   T   T
  0.0977323101498797  0.6250000000000000  0.3828652386814966   F   F   F
  0.4022676898501203  0.6250000000000000  0.3828652386814966   F   F   F
  0.2500000000000000  0.5000000000000000  0.3599695370364699   F   F   F
  0.2500000000000000  0.5000000000000000  0.4057609403265232   F   F   F
  0.3477323101498797  0.6250000000000000  0.4414326193407447   F   F   F
  0.1522676898501203  0.6250000000000000  0.4414326193407447   F   F   F
  0.0000000000000000  0.5000000000000000  0.4185369176957252   F   F   F
  0.0000000000000000  0.5000000000000000  0.4643283209857714   F   F   F
  0.0977323101498797  0.6250000000000000  0.5000000000000000   F   F   F
  0.4022676898501203  0.6250000000000000  0.5000000000000000   F   F   F
  0.2500000000000000  0.5000000000000000  0.4771042983549734   F   F   F
  0.2500000000000000  0.5000000000000000  0.5228957016450266   F   F   F
  0.3499605291145045  0.6250000121970771  0.5588361803677913   T   T   T
  0.1500417087196482  0.6250000203028492  0.5588362781762797   T   T   T
  0.0000006479079531  0.4999999942022555  0.5359432284801002   T   T   T
  0.0000007263748998  0.5000000308734087  0.5818121309130007   T   T   T
  0.0936352348644718  0.6249999508623034  0.6201202789700915   T   T   T
  0.4063657135038952  0.6249999589418351  0.6201203189065154   T   T   T
  0.2500005756684516  0.9999999900765957  0.5942581100491822   T   T   T
  0.2500002357844266  0.5000000846242969  0.6401254697334195   T   T   T
  0.0977323101498797  0.8750000000000000  0.3828652386814966   F   F   F
  0.4022676898501203  0.8750000000000000  0.3828652386814966   F   F   F
  0.2500000000000000  0.7500000000000000  0.3599695370364699   F   F   F
  0.2500000000000000  0.7500000000000000  0.4057609403265232   F   F   F
  0.3477323101498797  0.8750000000000000  0.4414326193407447   F   F   F
  0.1522676898501203  0.8750000000000000  0.4414326193407447   F   F   F
  0.0000000000000000  0.7500000000000000  0.4185369176957252   F   F   F
  0.0000000000000000  0.7500000000000000  0.4643283209857714   F   F   F
  0.0977323101498797  0.8750000000000000  0.5000000000000000   F   F   F
  0.4022676898501203  0.8750000000000000  0.5000000000000000   F   F   F
  0.2500000000000000  0.7500000000000000  0.4771042983549734   F   F   F
  0.2500000000000000  0.7500000000000000  0.5228957016450266   F   F   F
  0.3499605231504148  0.8749999626974443  0.5588361834705893   T   T   T
  0.1500417129587461  0.8749999763264427  0.5588362816986958   T   T   T
  0.0000006594552815  0.7500000187478264  0.5359432212085835   T   T   T
  0.0000007413255503  0.7499999633234111  0.5818121138137471   T   T   T
  0.0936352400005589  0.8750000458987301  0.6201202577877041   T   T   T
  0.4063656645372475  0.8750000649534613  0.6201202951225966   T   T   T
  0.2500005815060220  0.7499999542700806  0.5942580855056079   T   T   T
  0.2500002067803919  0.7499999169806486  0.6401254208189755   T   T   T
  0.5977323101498797  0.1250000000000000  0.3828652386814966   F   F   F
  0.9022676898501203  0.1250000000000000  0.3828652386814966   F   F   F
  0.7500000000000000  0.0000000000000000  0.3599695370364699   F   F   F
  0.7500000000000000  0.0000000000000000  0.4057609403265232   F   F   F
  0.8477323101498797  0.1250000000000000  0.4414326193407447   F   F   F
  0.6522676898501203  0.1250000000000000  0.4414326193407447   F   F   F
  0.5000000000000000  0.0000000000000000  0.4185369176957252   F   F   F
  0.5000000000000000  0.0000000000000000  0.4643283209857714   F   F   F
  0.5977323101498797  0.1250000000000000  0.5000000000000000   F   F   F
  0.9022676898501203  0.1250000000000000  0.5000000000000000   F   F   F
  0.7500000000000000  0.0000000000000000  0.4771042983549734   F   F   F
  0.7500000000000000  0.0000000000000000  0.5228957016450266   F   F   F
  0.8499605291145045  0.1250000121970771  0.5588361803677913   T   T   T
  0.6500417087196482  0.1250000203028492  0.5588362781762797   T   T   T
  0.5000006479079531  0.9999999942022555  0.5359432284801002   T   T   T
  0.5000007263748998  0.0000000308734087  0.5818121309130007   T   T   T
  0.5936352348644718  0.1249999508623034  0.6201202789700915   T   T   T
  0.9063657135038952  0.1249999589418351  0.6201203189065154   T   T   T
  0.7500005756684516  0.4999999900765957  0.5942581100491822   T   T   T
  0.7500002357844266  0.0000000846242969  0.6401254697334195   T   T   T
  0.5977323101498797  0.3750000000000000  0.3828652386814966   F   F   F
  0.9022676898501203  0.3750000000000000  0.3828652386814966   F   F   F
  0.7500000000000000  0.2500000000000000  0.3599695370364699   F   F   F
  0.7500000000000000  0.2500000000000000  0.4057609403265232   F   F   F
  0.8477323101498797  0.3750000000000000  0.4414326193407447   F   F   F
  0.6522676898501203  0.3750000000000000  0.4414326193407447   F   F   F
  0.5000000000000000  0.2500000000000000  0.4185369176957252   F   F   F
  0.5000000000000000  0.2500000000000000  0.4643283209857714   F   F   F
  0.5977323101498797  0.3750000000000000  0.5000000000000000   F   F   F
  0.9022676898501203  0.3750000000000000  0.5000000000000000   F   F   F
  0.7500000000000000  0.2500000000000000  0.4771042983549734   F   F   F
  0.7500000000000000  0.2500000000000000  0.5228957016450266   F   F   F
  0.8499605231504148  0.3749999626974443  0.5588361834705893   T   T   T
  0.6500417129587461  0.3749999763264427  0.5588362816986958   T   T   T
  0.5000006594552815  0.2500000187478264  0.5359432212085835   T   T   T
  0.5000007413255503  0.2499999633234111  0.5818121138137471   T   T   T
  0.5936352400005589  0.3750000458987301  0.6201202577877041   T   T   T
  0.9063656645372475  0.3750000649534613  0.6201202951225966   T   T   T
  0.7500005815060220  0.2499999542700806  0.5942580855056079   T   T   T
  0.7500002067803919  0.2499999169806486  0.6401254208189755   T   T   T
  0.5977323101498797  0.6250000000000000  0.3828652386814966   F   F   F
  0.9022676898501203  0.6250000000000000  0.3828652386814966   F   F   F
  0.7500000000000000  0.5000000000000000  0.3599695370364699   F   F   F
  0.7500000000000000  0.5000000000000000  0.4057609403265232   F   F   F
  0.8477323101498797  0.6250000000000000  0.4414326193407447   F   F   F
  0.6522676898501203  0.6250000000000000  0.4414326193407447   F   F   F
  0.5000000000000000  0.5000000000000000  0.4185369176957252   F   F   F
  0.5000000000000000  0.5000000000000000  0.4643283209857714   F   F   F
  0.5977323101498797  0.6250000000000000  0.5000000000000000   F   F   F
  0.9022676898501203  0.6250000000000000  0.5000000000000000   F   F   F
  0.7500000000000000  0.5000000000000000  0.4771042983549734   F   F   F
  0.7500000000000000  0.5000000000000000  0.5228957016450266   F   F   F
  0.8499605291145045  0.6250000121970771  0.5588361803677913   T   T   T
  0.6500417087196482  0.6250000203028492  0.5588362781762797   T   T   T
  0.5000006479079531  0.4999999942022555  0.5359432284801002   T   T   T
  0.5000007263748998  0.5000000308734087  0.5818121309130007   T   T   T
  0.5936352348644718  0.6249999508623034  0.6201202789700915   T   T   T
  0.9063657135038952  0.6249999589418351  0.6201203189065154   T   T   T
  0.7500005756684516  0.9999999900765957  0.5942581100491822   T   T   T
  0.7500002357844266  0.5000000846242969  0.6401254697334195   T   T   T
  0.5977323101498797  0.8750000000000000  0.3828652386814966   F   F   F
  0.9022676898501203  0.8750000000000000  0.3828652386814966   F   F   F
  0.7500000000000000  0.7500000000000000  0.3599695370364699   F   F   F
  0.7500000000000000  0.7500000000000000  0.4057609403265232   F   F   F
  0.8477323101498797  0.8750000000000000  0.4414326193407447   F   F   F
  0.6522676898501203  0.8750000000000000  0.4414326193407447   F   F   F
  0.5000000000000000  0.7500000000000000  0.4185369176957252   F   F   F
  0.5000000000000000  0.7500000000000000  0.4643283209857714   F   F   F
  0.5977323101498797  0.8750000000000000  0.5000000000000000   F   F   F
  0.9022676898501203  0.8750000000000000  0.5000000000000000   F   F   F
  0.7500000000000000  0.7500000000000000  0.4771042983549734   F   F   F
  0.7500000000000000  0.7500000000000000  0.5228957016450266   F   F   F
  0.8499605231504148  0.8749999626974443  0.5588361834705893   T   T   T
  0.6500417129587461  0.8749999763264427  0.5588362816986958   T   T   T
  0.5000006594552815  0.7500000187478264  0.5359432212085835   T   T   T
  0.5000007413255503  0.7499999633234111  0.5818121138137471   T   T   T
  0.5936352400005589  0.8750000458987301  0.6201202577877041   T   T   T
  0.9063656645372475  0.8750000649534613  0.6201202951225966   T   T   T
  0.7500005815060220  0.7499999542700806  0.5942580855056079   T   T   T
  0.7500002067803919  0.7499999169806486  0.6401254208189755   T   T   T
  0.2500000000000000  0.1250000000000000  0.3828652386814966   F   F   F
  0.0000000000000000  0.0000000000000000  0.3828652386814966   F   F   F
  0.0000000000000000  0.1250000000000000  0.4414326193407447   F   F   F
  0.2500000000000000  0.0000000000000000  0.4414326193407447   F   F   F
  0.2500000000000000  0.1250000000000000  0.5000000000000000   F   F   F
  0.0000000000000000  0.0000000000000000  0.5000000000000000   F   F   F
  0.4999950501122328  0.1249999636722308  0.5573340606639121   T   T   T
  0.2499962250722874  0.0000000246682887  0.5607003025198196   T   T   T
  0.2500006483489798  0.1250004838868506  0.6208864341466409   T   T   T
  0.0000005080000420  0.9999999900344889  0.6144387343520421   T   T   T
  0.2500000000000000  0.3750000000000000  0.3828652386814966   F   F   F
  0.0000000000000000  0.2500000000000000  0.3828652386814966   F   F   F
  0.0000000000000000  0.3750000000000000  0.4414326193407447   F   F   F
  0.2500000000000000  0.2500000000000000  0.4414326193407447   F   F   F
  0.2500000000000000  0.3750000000000000  0.5000000000000000   F   F   F
  0.0000000000000000  0.2500000000000000  0.5000000000000000   F   F   F
  0.4999950350690412  0.3750000461047023  0.5573340683897925   T   T   T
  0.2499962358398093  0.2500000407556939  0.5607003366689014   T   T   T
  0.2500006599529669  0.3749995480084323  0.6208865183634416   T   T   T
  0.0000004636441631  0.2500000415310524  0.6144387283722352   T   T   T
  0.2500000000000000  0.6250000000000000  0.3828652386814966   F   F   F
  0.0000000000000000  0.5000000000000000  0.3828652386814966   F   F   F
  0.0000000000000000  0.6250000000000000  0.4414326193407447   F   F   F
  0.2500000000000000  0.5000000000000000  0.4414326193407447   F   F   F
  0.2500000000000000  0.6250000000000000  0.5000000000000000   F   F   F
  0.0000000000000000  0.5000000000000000  0.5000000000000000   F   F   F
  0.4999950501122328  0.6249999636722308  0.5573340606639121   T   T   T
  0.2499962250722874  0.5000000246682887  0.5607003025198196   T   T   T
  0.2500006483489798  0.6250004838868506  0.6208864341466409   T   T   T
  0.0000005080000420  0.4999999900344889  0.6144387343520421   T   T   T
  0.2500000000000000  0.8750000000000000  0.3828652386814966   F   F   F
  0.0000000000000000  0.7500000000000000  0.3828652386814966   F   F   F
  0.0000000000000000  0.8750000000000000  0.4414326193407447   F   F   F
  0.2500000000000000  0.7500000000000000  0.4414326193407447   F   F   F
  0.2500000000000000  0.8750000000000000  0.5000000000000000   F   F   F
  0.0000000000000000  0.7500000000000000  0.5000000000000000   F   F   F
  0.4999950350690412  0.8750000461047023  0.5573340683897925   T   T   T
  0.2499962358398093  0.7500000407556939  0.5607003366689014   T   T   T
  0.2500006599529669  0.8749995480084323  0.6208865183634416   T   T   T
  0.0000004636441631  0.7500000415310524  0.6144387283722352   T   T   T
  0.7500000000000000  0.1250000000000000  0.3828652386814966   F   F   F
  0.5000000000000000  0.0000000000000000  0.3828652386814966   F   F   F
  0.5000000000000000  0.1250000000000000  0.4414326193407447   F   F   F
  0.7500000000000000  0.0000000000000000  0.4414326193407447   F   F   F
  0.7500000000000000  0.1250000000000000  0.5000000000000000   F   F   F
  0.5000000000000000  0.0000000000000000  0.5000000000000000   F   F   F
  0.9999950501122328  0.1249999636722308  0.5573340606639121   T   T   T
  0.7499962250722874  0.0000000246682887  0.5607003025198196   T   T   T
  0.7500006483489798  0.1250004838868506  0.6208864341466409   T   T   T
  0.5000005080000420  0.9999999900344889  0.6144387343520421   T   T   T
  0.7500000000000000  0.3750000000000000  0.3828652386814966   F   F   F
  0.5000000000000000  0.2500000000000000  0.3828652386814966   F   F   F
  0.5000000000000000  0.3750000000000000  0.4414326193407447   F   F   F
  0.7500000000000000  0.2500000000000000  0.4414326193407447   F   F   F
  0.7500000000000000  0.3750000000000000  0.5000000000000000   F   F   F
  0.5000000000000000  0.2500000000000000  0.5000000000000000   F   F   F
  0.9999950350690412  0.3750000461047023  0.5573340683897925   T   T   T
  0.7499962358398093  0.2500000407556939  0.5607003366689014   T   T   T
  0.7500006599529669  0.3749995480084323  0.6208865183634416   T   T   T
  0.5000004636441631  0.2500000415310524  0.6144387283722352   T   T   T
  0.7500000000000000  0.6250000000000000  0.3828652386814966   F   F   F
  0.5000000000000000  0.5000000000000000  0.3828652386814966   F   F   F
  0.5000000000000000  0.6250000000000000  0.4414326193407447   F   F   F
  0.7500000000000000  0.5000000000000000  0.4414326193407447   F   F   F
  0.7500000000000000  0.6250000000000000  0.5000000000000000   F   F   F
  0.5000000000000000  0.5000000000000000  0.5000000000000000   F   F   F
  0.9999950501122328  0.6249999636722308  0.5573340606639121   T   T   T
  0.7499962250722874  0.5000000246682887  0.5607003025198196   T   T   T
  0.7500006483489798  0.6250004838868506  0.6208864341466409   T   T   T
  0.5000005080000420  0.4999999900344889  0.6144387343520421   T   T   T
  0.7500000000000000  0.8750000000000000  0.3828652386814966   F   F   F
  0.5000000000000000  0.7500000000000000  0.3828652386814966   F   F   F
  0.5000000000000000  0.8750000000000000  0.4414326193407447   F   F   F
  0.7500000000000000  0.7500000000000000  0.4414326193407447   F   F   F
  0.7500000000000000  0.8750000000000000  0.5000000000000000   F   F   F
  0.5000000000000000  0.7500000000000000  0.5000000000000000   F   F   F
  0.9999950350690412  0.8750000461047023  0.5573340683897925   T   T   T
  0.7499962358398093  0.7500000407556939  0.5607003366689014   T   T   T
  0.7500006599529669  0.8749995480084323  0.6208865183634416   T   T   T
  0.5000004636441631  0.7500000415310524  0.6144387283722352   T   T   T
 
  0.00000000E+00  0.00000000E+00  0.00000000E+00
  0.00000000E+00  0.00000000E+00  0.00000000E+00
  0.00000000E+00  0.00000000E+00  0.00000000E+00
  0.00000000E+00  0.00000000E+00  0.00000000E+00
  0.00000000E+00  0.00000000E+00  0.00000000E+00
  0.00000000E+00  0.00000000E+00  0.00000000E+00
  0.00000000E+00  0.00000000E+00  0.00000000E+00
  0.00000000E+00  0.00000000E+00  0.00000000E+00
  0.00000000E+00  0.00000000E+00  0.00000000E+00
  0.00000000E+00  0.00000000E+00  0.00000000E+00
  0.00000000E+00  0.00000000E+00  0.00000000E+00
  0.00000000E+00  0.00000000E+00  0.00000000E+00
  0.00000000E+00  0.00000000E+00  0.00000000E+00
  0.00000000E+00  0.00000000E+00  0.00000000E+00
  0.00000000E+00  0.00000000E+00  0.00000000E+00
  0.00000000E+00  0.00000000E+00  0.00000000E+00
  0.00000000E+00  0.00000000E+00  0.00000000E+00
  0.00000000E+00  0.00000000E+00  0.00000000E+00
  0.00000000E+00  0.00000000E+00  0.00000000E+00
  0.00000000E+00  0.00000000E+00  0.00000000E+00
  0.00000000E+00  0.00000000E+00  0.00000000E+00
  0.00000000E+00  0.00000000E+00  0.00000000E+00
  0.00000000E+00  0.00000000E+00  0.00000000E+00
  0.00000000E+00  0.00000000E+00  0.00000000E+00
  0.00000000E+00  0.00000000E+00  0.00000000E+00
  0.00000000E+00  0.00000000E+00  0.00000000E+00
  0.00000000E+00  0.00000000E+00  0.00000000E+00
  0.00000000E+00  0.00000000E+00  0.00000000E+00
  0.00000000E+00  0.00000000E+00  0.00000000E+00
  0.00000000E+00  0.00000000E+00  0.00000000E+00
  0.00000000E+00  0.00000000E+00  0.00000000E+00
  0.00000000E+00  0.00000000E+00  0.00000000E+00
  0.00000000E+00  0.00000000E+00  0.00000000E+00
  0.00000000E+00  0.00000000E+00  0.00000000E+00
  0.00000000E+00  0.00000000E+00  0.00000000E+00
  0.00000000E+00  0.00000000E+00  0.00000000E+00
  0.00000000E+00  0.00000000E+00  0.00000000E+00
  0.00000000E+00  0.00000000E+00  0.00000000E+00
  0.00000000E+00  0.00000000E+00  0.00000000E+00
  0.00000000E+00  0.00000000E+00  0.00000000E+00
  0.00000000E+00  0.00000000E+00  0.00000000E+00
  0.00000000E+00  0.00000000E+00  0.00000000E+00
  0.00000000E+00  0.00000000E+00  0.00000000E+00
  0.00000000E+00  0.00000000E+00  0.00000000E+00
  0.00000000E+00  0.00000000E+00  0.00000000E+00
  0.00000000E+00  0.00000000E+00  0.00000000E+00
  0.00000000E+00  0.00000000E+00  0.00000000E+00
  0.00000000E+00  0.00000000E+00  0.00000000E+00
  0.00000000E+00  0.00000000E+00  0.00000000E+00
  0.00000000E+00  0.00000000E+00  0.00000000E+00
  0.00000000E+00  0.00000000E+00  0.00000000E+00
  0.00000000E+00  0.00000000E+00  0.00000000E+00
  0.00000000E+00  0.00000000E+00  0.00000000E+00
  0.00000000E+00  0.00000000E+00  0.00000000E+00
  0.00000000E+00  0.00000000E+00  0.00000000E+00
  0.00000000E+00  0.00000000E+00  0.00000000E+00
  0.00000000E+00  0.00000000E+00  0.00000000E+00
  0.00000000E+00  0.00000000E+00  0.00000000E+00
  0.00000000E+00  0.00000000E+00  0.00000000E+00
  0.00000000E+00  0.00000000E+00  0.00000000E+00
  0.00000000E+00  0.00000000E+00  0.00000000E+00
  0.00000000E+00  0.00000000E+00  0.00000000E+00
  0.00000000E+00  0.00000000E+00  0.00000000E+00
  0.00000000E+00  0.00000000E+00  0.00000000E+00
  0.00000000E+00  0.00000000E+00  0.00000000E+00
  0.00000000E+00  0.00000000E+00  0.00000000E+00
  0.00000000E+00  0.00000000E+00  0.00000000E+00
  0.00000000E+00  0.00000000E+00  0.00000000E+00
  0.00000000E+00  0.00000000E+00  0.00000000E+00
  0.00000000E+00  0.00000000E+00  0.00000000E+00
  0.00000000E+00  0.00000000E+00  0.00000000E+00
  0.00000000E+00  0.00000000E+00  0.00000000E+00
  0.00000000E+00  0.00000000E+00  0.00000000E+00
  0.00000000E+00  0.00000000E+00  0.00000000E+00
  0.00000000E+00  0.00000000E+00  0.00000000E+00
  0.00000000E+00  0.00000000E+00  0.00000000E+00
  0.00000000E+00  0.00000000E+00  0.00000000E+00
  0.00000000E+00  0.00000000E+00  0.00000000E+00
  0.00000000E+00  0.00000000E+00  0.00000000E+00
  0.00000000E+00  0.00000000E+00  0.00000000E+00
  0.00000000E+00  0.00000000E+00  0.00000000E+00
  0.00000000E+00  0.00000000E+00  0.00000000E+00
  0.00000000E+00  0.00000000E+00  0.00000000E+00
  0.00000000E+00  0.00000000E+00  0.00000000E+00
  0.00000000E+00  0.00000000E+00  0.00000000E+00
  0.00000000E+00  0.00000000E+00  0.00000000E+00
  0.00000000E+00  0.00000000E+00  0.00000000E+00
  0.00000000E+00  0.00000000E+00  0.00000000E+00
  0.00000000E+00  0.00000000E+00  0.00000000E+00
  0.00000000E+00  0.00000000E+00  0.00000000E+00
  0.00000000E+00  0.00000000E+00  0.00000000E+00
  0.00000000E+00  0.00000000E+00  0.00000000E+00
  0.00000000E+00  0.00000000E+00  0.00000000E+00
  0.00000000E+00  0.00000000E+00  0.00000000E+00
  0.00000000E+00  0.00000000E+00  0.00000000E+00
  0.00000000E+00  0.00000000E+00  0.00000000E+00
  0.00000000E+00  0.00000000E+00  0.00000000E+00
  0.00000000E+00  0.00000000E+00  0.00000000E+00
  0.00000000E+00  0.00000000E+00  0.00000000E+00
  0.00000000E+00  0.00000000E+00  0.00000000E+00
  0.00000000E+00  0.00000000E+00  0.00000000E+00
  0.00000000E+00  0.00000000E+00  0.00000000E+00
  0.00000000E+00  0.00000000E+00  0.00000000E+00
  0.00000000E+00  0.00000000E+00  0.00000000E+00
  0.00000000E+00  0.00000000E+00  0.00000000E+00
  0.00000000E+00  0.00000000E+00  0.00000000E+00
  0.00000000E+00  0.00000000E+00  0.00000000E+00
  0.00000000E+00  0.00000000E+00  0.00000000E+00
  0.00000000E+00  0.00000000E+00  0.00000000E+00
  0.00000000E+00  0.00000000E+00  0.00000000E+00
  0.00000000E+00  0.00000000E+00  0.00000000E+00
  0.00000000E+00  0.00000000E+00  0.00000000E+00
  0.00000000E+00  0.00000000E+00  0.00000000E+00
  0.00000000E+00  0.00000000E+00  0.00000000E+00
  0.00000000E+00  0.00000000E+00  0.00000000E+00
  0.00000000E+00  0.00000000E+00  0.00000000E+00
  0.00000000E+00  0.00000000E+00  0.00000000E+00
  0.00000000E+00  0.00000000E+00  0.00000000E+00
  0.00000000E+00  0.00000000E+00  0.00000000E+00
  0.00000000E+00  0.00000000E+00  0.00000000E+00
  0.00000000E+00  0.00000000E+00  0.00000000E+00
  0.00000000E+00  0.00000000E+00  0.00000000E+00
  0.00000000E+00  0.00000000E+00  0.00000000E+00
  0.00000000E+00  0.00000000E+00  0.00000000E+00
  0.00000000E+00  0.00000000E+00  0.00000000E+00
  0.00000000E+00  0.00000000E+00  0.00000000E+00
  0.00000000E+00  0.00000000E+00  0.00000000E+00
  0.00000000E+00  0.00000000E+00  0.00000000E+00
  0.00000000E+00  0.00000000E+00  0.00000000E+00
  0.00000000E+00  0.00000000E+00  0.00000000E+00
  0.00000000E+00  0.00000000E+00  0.00000000E+00
  0.00000000E+00  0.00000000E+00  0.00000000E+00
  0.00000000E+00  0.00000000E+00  0.00000000E+00
  0.00000000E+00  0.00000000E+00  0.00000000E+00
  0.00000000E+00  0.00000000E+00  0.00000000E+00
  0.00000000E+00  0.00000000E+00  0.00000000E+00
  0.00000000E+00  0.00000000E+00  0.00000000E+00
  0.00000000E+00  0.00000000E+00  0.00000000E+00
  0.00000000E+00  0.00000000E+00  0.00000000E+00
  0.00000000E+00  0.00000000E+00  0.00000000E+00
  0.00000000E+00  0.00000000E+00  0.00000000E+00
  0.00000000E+00  0.00000000E+00  0.00000000E+00
  0.00000000E+00  0.00000000E+00  0.00000000E+00
  0.00000000E+00  0.00000000E+00  0.00000000E+00
  0.00000000E+00  0.00000000E+00  0.00000000E+00
  0.00000000E+00  0.00000000E+00  0.00000000E+00
  0.00000000E+00  0.00000000E+00  0.00000000E+00
  0.00000000E+00  0.00000000E+00  0.00000000E+00
  0.00000000E+00  0.00000000E+00  0.00000000E+00
  0.00000000E+00  0.00000000E+00  0.00000000E+00
  0.00000000E+00  0.00000000E+00  0.00000000E+00
  0.00000000E+00  0.00000000E+00  0.00000000E+00
  0.00000000E+00  0.00000000E+00  0.00000000E+00
  0.00000000E+00  0.00000000E+00  0.00000000E+00
  0.00000000E+00  0.00000000E+00  0.00000000E+00
  0.00000000E+00  0.00000000E+00  0.00000000E+00
  0.00000000E+00  0.00000000E+00  0.00000000E+00
  0.00000000E+00  0.00000000E+00  0.00000000E+00
  0.00000000E+00  0.00000000E+00  0.00000000E+00
  0.00000000E+00  0.00000000E+00  0.00000000E+00
  0.00000000E+00  0.00000000E+00  0.00000000E+00
  0.00000000E+00  0.00000000E+00  0.00000000E+00
  0.00000000E+00  0.00000000E+00  0.00000000E+00
  0.00000000E+00  0.00000000E+00  0.00000000E+00
  0.00000000E+00  0.00000000E+00  0.00000000E+00
  0.00000000E+00  0.00000000E+00  0.00000000E+00
  0.00000000E+00  0.00000000E+00  0.00000000E+00
  0.00000000E+00  0.00000000E+00  0.00000000E+00
  0.00000000E+00  0.00000000E+00  0.00000000E+00
  0.00000000E+00  0.00000000E+00  0.00000000E+00
  0.00000000E+00  0.00000000E+00  0.00000000E+00
  0.00000000E+00  0.00000000E+00  0.00000000E+00
  0.00000000E+00  0.00000000E+00  0.00000000E+00
  0.00000000E+00  0.00000000E+00  0.00000000E+00
  0.00000000E+00  0.00000000E+00  0.00000000E+00
  0.00000000E+00  0.00000000E+00  0.00000000E+00
  0.00000000E+00  0.00000000E+00  0.00000000E+00
  0.00000000E+00  0.00000000E+00  0.00000000E+00
  0.00000000E+00  0.00000000E+00  0.00000000E+00
  0.00000000E+00  0.00000000E+00  0.00000000E+00
  0.00000000E+00  0.00000000E+00  0.00000000E+00
  0.00000000E+00  0.00000000E+00  0.00000000E+00
  0.00000000E+00  0.00000000E+00  0.00000000E+00
  0.00000000E+00  0.00000000E+00  0.00000000E+00
  0.00000000E+00  0.00000000E+00  0.00000000E+00
  0.00000000E+00  0.00000000E+00  0.00000000E+00
  0.00000000E+00  0.00000000E+00  0.00000000E+00
  0.00000000E+00  0.00000000E+00  0.00000000E+00
  0.00000000E+00  0.00000000E+00  0.00000000E+00
  0.00000000E+00  0.00000000E+00  0.00000000E+00
  0.00000000E+00  0.00000000E+00  0.00000000E+00
  0.00000000E+00  0.00000000E+00  0.00000000E+00
  0.00000000E+00  0.00000000E+00  0.00000000E+00
  0.00000000E+00  0.00000000E+00  0.00000000E+00
  0.00000000E+00  0.00000000E+00  0.00000000E+00
  0.00000000E+00  0.00000000E+00  0.00000000E+00
  0.00000000E+00  0.00000000E+00  0.00000000E+00
  0.00000000E+00  0.00000000E+00  0.00000000E+00
  0.00000000E+00  0.00000000E+00  0.00000000E+00
  0.00000000E+00  0.00000000E+00  0.00000000E+00
  0.00000000E+00  0.00000000E+00  0.00000000E+00
  0.00000000E+00  0.00000000E+00  0.00000000E+00
  0.00000000E+00  0.00000000E+00  0.00000000E+00
  0.00000000E+00  0.00000000E+00  0.00000000E+00
  0.00000000E+00  0.00000000E+00  0.00000000E+00
  0.00000000E+00  0.00000000E+00  0.00000000E+00
  0.00000000E+00  0.00000000E+00  0.00000000E+00
  0.00000000E+00  0.00000000E+00  0.00000000E+00
  0.00000000E+00  0.00000000E+00  0.00000000E+00
  0.00000000E+00  0.00000000E+00  0.00000000E+00
  0.00000000E+00  0.00000000E+00  0.00000000E+00
  0.00000000E+00  0.00000000E+00  0.00000000E+00
  0.00000000E+00  0.00000000E+00  0.00000000E+00
  0.00000000E+00  0.00000000E+00  0.00000000E+00
  0.00000000E+00  0.00000000E+00  0.00000000E+00
  0.00000000E+00  0.00000000E+00  0.00000000E+00
  0.00000000E+00  0.00000000E+00  0.00000000E+00
  0.00000000E+00  0.00000000E+00  0.00000000E+00
  0.00000000E+00  0.00000000E+00  0.00000000E+00
  0.00000000E+00  0.00000000E+00  0.00000000E+00
  0.00000000E+00  0.00000000E+00  0.00000000E+00
  0.00000000E+00  0.00000000E+00  0.00000000E+00
  0.00000000E+00  0.00000000E+00  0.00000000E+00
  0.00000000E+00  0.00000000E+00  0.00000000E+00
  0.00000000E+00  0.00000000E+00  0.00000000E+00
  0.00000000E+00  0.00000000E+00  0.00000000E+00
  0.00000000E+00  0.00000000E+00  0.00000000E+00
  0.00000000E+00  0.00000000E+00  0.00000000E+00
  0.00000000E+00  0.00000000E+00  0.00000000E+00
  0.00000000E+00  0.00000000E+00  0.00000000E+00
  0.00000000E+00  0.00000000E+00  0.00000000E+00
  0.00000000E+00  0.00000000E+00  0.00000000E+00
  0.00000000E+00  0.00000000E+00  0.00000000E+00
  0.00000000E+00  0.00000000E+00  0.00000000E+00
  0.00000000E+00  0.00000000E+00  0.00000000E+00
  0.00000000E+00  0.00000000E+00  0.00000000E+00
  0.00000000E+00  0.00000000E+00  0.00000000E+00
  0.00000000E+00  0.00000000E+00  0.00000000E+00
  0.00000000E+00  0.00000000E+00  0.00000000E+00
  0.00000000E+00  0.00000000E+00  0.00000000E+00
