 O Ti 
 1.0000000000000000
    13.0160748915413169    0.0000000000000000    0.0000000000000000
     0.0000000000000000   11.8443707738385253    0.0000000000000000
     0.0000000000000000    0.0000000000000000   55.5602570280096657
   O  Ti
 160  80
Selective dynamics
Direct
  0.0977323101498797  0.1250000000000000  0.3828652386814965   F   F   F
  0.4022676898501203  0.1250000000000000  0.3828652386814965   F   F   F
  0.2500000000000000  0.0000000000000000  0.3599695370364698   F   F   F
  0.2500000000000000  0.0000000000000000  0.4057609403265232   F   F   F
  0.3477323101498797  0.1250000000000000  0.4414326193407446   F   F   F
  0.1522676898501203  0.1250000000000000  0.4414326193407446   F   F   F
  0.0000000000000000  0.0000000000000000  0.4185369176957252   F   F   F
  0.0000000000000000  0.0000000000000000  0.4643283209857714   F   F   F
  0.0977323101498797  0.1250000000000000  0.5000000000000000   F   F   F
  0.4022676898501203  0.1250000000000000  0.5000000000000000   F   F   F
  0.2500000000000000  0.0000000000000000  0.4771042983549734   F   F   F
  0.2500000000000000  0.0000000000000000  0.5228957016450266   F   F   F
  0.3499605291145020  0.1250000121970782  0.5588361803677921   T   T   T
  0.1500417087196456  0.1250000203028500  0.5588362781762769   T   T   T
  0.0000006479079549  0.9999999942022531  0.5359432284800980   T   T   T
  0.0000007263748976  0.0000000308734093  0.5818121309130002   T   T   T
  0.0936352348644687  0.1249999508623026  0.6201202789700903   T   T   T
  0.4063657135038983  0.1249999589418341  0.6201203189065129   T   T   T
  0.2500005756684493  0.4999999900765960  0.5942581100491833   T   T   T
  0.2500002357844248  0.0000000846242964  0.6401254697334189   T   T   T
  0.0977323101498797  0.3750000000000000  0.3828652386814965   F   F   F
  0.4022676898501203  0.3750000000000000  0.3828652386814965   F   F   F
  0.2500000000000000  0.2500000000000000  0.3599695370364698   F   F   F
  0.2500000000000000  0.2500000000000000  0.4057609403265232   F   F   F
  0.3477323101498797  0.3750000000000000  0.4414326193407446   F   F   F
  0.1522676898501203  0.3750000000000000  0.4414326193407446   F   F   F
  0.0000000000000000  0.2500000000000000  0.4185369176957252   F   F   F
  0.0000000000000000  0.2500000000000000  0.4643283209857714   F   F   F
  0.0977323101498797  0.3750000000000000  0.5000000000000000   F   F   F
  0.4022676898501203  0.3750000000000000  0.5000000000000000   F   F   F
  0.2500000000000000  0.2500000000000000  0.4771042983549734   F   F   F
  0.2500000000000000  0.2500000000000000  0.5228957016450266   F   F   F
  0.3499605231504143  0.3749999626974475  0.5588361834705897   T   T   T
  0.1500417129587476  0.3749999763264428  0.5588362816986937   T   T   T
  0.0000006594552799  0.2500000187478288  0.5359432212085800   T   T   T
  0.0000007413255520  0.2499999633234132  0.5818121138137491   T   T   T
  0.0936352400005605  0.3750000458987326  0.6201202577877029   T   T   T
  0.4063656645372458  0.3750000649534611  0.6201202951225987   T   T   T
  0.2500005815060203  0.2499999542700798  0.5942580855056109   T   T   T
  0.2500002067803934  0.2499999169806490  0.6401254208189769   T   T   T
  0.0977323101498797  0.6250000000000000  0.3828652386814965   F   F   F
  0.4022676898501203  0.6250000000000000  0.3828652386814965   F   F   F
  0.2500000000000000  0.5000000000000000  0.3599695370364698   F   F   F
  0.2500000000000000  0.5000000000000000  0.4057609403265232   F   F   F
  0.3477323101498797  0.6250000000000000  0.4414326193407446   F   F   F
  0.1522676898501203  0.6250000000000000  0.4414326193407446   F   F   F
  0.0000000000000000  0.5000000000000000  0.4185369176957252   F   F   F
  0.0000000000000000  0.5000000000000000  0.4643283209857714   F   F   F
  0.0977323101498797  0.6250000000000000  0.5000000000000000   F   F   F
  0.4022676898501203  0.6250000000000000  0.5000000000000000   F   F   F
  0.2500000000000000  0.5000000000000000  0.4771042983549734   F   F   F
  0.2500000000000000  0.5000000000000000  0.5228957016450266   F   F   F
  0.3499605291145020  0.6250000121970782  0.5588361803677921   T   T   T
  0.1500417087196456  0.6250000203028501  0.5588362781762769   T   T   T
  0.0000006479079549  0.4999999942022531  0.5359432284800980   T   T   T
  0.0000007263748976  0.5000000308734094  0.5818121309130002   T   T   T
  0.0936352348644687  0.6249999508623026  0.6201202789700903   T   T   T
  0.4063657135038983  0.6249999589418341  0.6201203189065129   T   T   T
  0.2500005756684493  0.9999999900765960  0.5942581100491833   T   T   T
  0.2500002357844248  0.5000000846242965  0.6401254697334189   T   T   T
  0.0977323101498797  0.8750000000000001  0.3828652386814965   F   F   F
  0.4022676898501203  0.8750000000000001  0.3828652386814965   F   F   F
  0.2500000000000000  0.7500000000000000  0.3599695370364698   F   F   F
  0.2500000000000000  0.7500000000000000  0.4057609403265232   F   F   F
  0.3477323101498797  0.8750000000000001  0.4414326193407446   F   F   F
  0.1522676898501203  0.8750000000000001  0.4414326193407446   F   F   F
  0.0000000000000000  0.7500000000000000  0.4185369176957252   F   F   F
  0.0000000000000000  0.7500000000000000  0.4643283209857714   F   F   F
  0.0977323101498797  0.8750000000000001  0.5000000000000000   F   F   F
  0.4022676898501203  0.8750000000000001  0.5000000000000000   F   F   F
  0.2500000000000000  0.7500000000000000  0.4771042983549734   F   F   F
  0.2500000000000000  0.7500000000000000  0.5228957016450266   F   F   F
  0.3499605231504143  0.8749999626974474  0.5588361834705897   T   T   T
  0.1500417129587476  0.8749999763264429  0.5588362816986937   T   T   T
  0.0000006594552799  0.7500000187478288  0.5359432212085800   T   T   T
  0.0000007413255520  0.7499999633234132  0.5818121138137491   T   T   T
  0.0936352400005605  0.8750000458987326  0.6201202577877029   T   T   T
  0.4063656645372458  0.8750000649534611  0.6201202951225987   T   T   T
  0.2500005815060203  0.7499999542700798  0.5942580855056109   T   T   T
  0.2500002067803934  0.7499999169806491  0.6401254208189769   T   T   T
  0.5977323101498797  0.1250000000000000  0.3828652386814965   F   F   F
  0.9022676898501204  0.1250000000000000  0.3828652386814965   F   F   F
  0.7500000000000001  0.0000000000000000  0.3599695370364698   F   F   F
  0.7500000000000001  0.0000000000000000  0.4057609403265232   F   F   F
  0.8477323101498797  0.1250000000000000  0.4414326193407446   F   F   F
  0.6522676898501203  0.1250000000000000  0.4414326193407446   F   F   F
  0.5000000000000000  0.0000000000000000  0.4185369176957252   F   F   F
  0.5000000000000000  0.0000000000000000  0.4643283209857714   F   F   F
  0.5977323101498797  0.1250000000000000  0.5000000000000000   F   F   F
  0.9022676898501204  0.1250000000000000  0.5000000000000000   F   F   F
  0.7500000000000001  0.0000000000000000  0.4771042983549734   F   F   F
  0.7500000000000001  0.0000000000000000  0.5228957016450266   F   F   F
  0.8499605291145020  0.1250000121970782  0.5588361803677921   T   T   T
  0.6500417087196456  0.1250000203028500  0.5588362781762769   T   T   T
  0.5000006479079548  0.9999999942022531  0.5359432284800980   T   T   T
  0.5000007263748976  0.0000000308734093  0.5818121309130002   T   T   T
  0.5936352348644688  0.1249999508623026  0.6201202789700903   T   T   T
  0.9063657135038983  0.1249999589418341  0.6201203189065129   T   T   T
  0.7500005756684494  0.4999999900765960  0.5942581100491833   T   T   T
  0.7500002357844248  0.0000000846242964  0.6401254697334189   T   T   T
  0.5977323101498797  0.3750000000000000  0.3828652386814965   F   F   F
  0.9022676898501204  0.3750000000000000  0.3828652386814965   F   F   F
  0.7500000000000001  0.2500000000000000  0.3599695370364698   F   F   F
  0.7500000000000001  0.2500000000000000  0.4057609403265232   F   F   F
  0.8477323101498797  0.3750000000000000  0.4414326193407446   F   F   F
  0.6522676898501203  0.3750000000000000  0.4414326193407446   F   F   F
  0.5000000000000000  0.2500000000000000  0.4185369176957252   F   F   F
  0.5000000000000000  0.2500000000000000  0.4643283209857714   F   F   F
  0.5977323101498797  0.3750000000000000  0.5000000000000000   F   F   F
  0.9022676898501204  0.3750000000000000  0.5000000000000000   F   F   F
  0.7500000000000001  0.2500000000000000  0.4771042983549734   F   F   F
  0.7500000000000001  0.2500000000000000  0.5228957016450266   F   F   F
  0.8499605231504144  0.3749999626974475  0.5588361834705897   T   T   T
  0.6500417129587476  0.3749999763264428  0.5588362816986937   T   T   T
  0.5000006594552799  0.2500000187478288  0.5359432212085800   T   T   T
  0.5000007413255521  0.2499999633234132  0.5818121138137491   T   T   T
  0.5936352400005606  0.3750000458987326  0.6201202577877029   T   T   T
  0.9063656645372458  0.3750000649534611  0.6201202951225987   T   T   T
  0.7500005815060203  0.2499999542700798  0.5942580855056109   T   T   T
  0.7500002067803934  0.2499999169806490  0.6401254208189769   T   T   T
  0.5977323101498797  0.6250000000000000  0.3828652386814965   F   F   F
  0.9022676898501204  0.6250000000000000  0.3828652386814965   F   F   F
  0.7500000000000001  0.5000000000000000  0.3599695370364698   F   F   F
  0.7500000000000001  0.5000000000000000  0.4057609403265232   F   F   F
  0.8477323101498797  0.6250000000000000  0.4414326193407446   F   F   F
  0.6522676898501203  0.6250000000000000  0.4414326193407446   F   F   F
  0.5000000000000000  0.5000000000000000  0.4185369176957252   F   F   F
  0.5000000000000000  0.5000000000000000  0.4643283209857714   F   F   F
  0.5977323101498797  0.6250000000000000  0.5000000000000000   F   F   F
  0.9022676898501204  0.6250000000000000  0.5000000000000000   F   F   F
  0.7500000000000001  0.5000000000000000  0.4771042983549734   F   F   F
  0.7500000000000001  0.5000000000000000  0.5228957016450266   F   F   F
  0.8499605291145020  0.6250000121970782  0.5588361803677921   T   T   T
  0.6500417087196456  0.6250000203028501  0.5588362781762769   T   T   T
  0.5000006479079548  0.4999999942022531  0.5359432284800980   T   T   T
  0.5000007263748976  0.5000000308734094  0.5818121309130002   T   T   T
  0.5936352348644688  0.6249999508623026  0.6201202789700903   T   T   T
  0.9063657135038983  0.6249999589418341  0.6201203189065129   T   T   T
  0.7500005756684494  0.9999999900765960  0.5942581100491833   T   T   T
  0.7500002357844248  0.5000000846242965  0.6401254697334189   T   T   T
  0.5977323101498797  0.8750000000000001  0.3828652386814965   F   F   F
  0.9022676898501204  0.8750000000000001  0.3828652386814965   F   F   F
  0.7500000000000001  0.7500000000000000  0.3599695370364698   F   F   F
  0.7500000000000001  0.7500000000000000  0.4057609403265232   F   F   F
  0.8477323101498797  0.8750000000000001  0.4414326193407446   F   F   F
  0.6522676898501203  0.8750000000000001  0.4414326193407446   F   F   F
  0.5000000000000000  0.7500000000000000  0.4185369176957252   F   F   F
  0.5000000000000000  0.7500000000000000  0.4643283209857714   F   F   F
  0.5977323101498797  0.8750000000000001  0.5000000000000000   F   F   F
  0.9022676898501204  0.8750000000000001  0.5000000000000000   F   F   F
  0.7500000000000001  0.7500000000000000  0.4771042983549734   F   F   F
  0.7500000000000001  0.7500000000000000  0.5228957016450266   F   F   F
  0.8499605231504144  0.8749999626974474  0.5588361834705897   T   T   T
  0.6500417129587476  0.8749999763264429  0.5588362816986937   T   T   T
  0.5000006594552799  0.7500000187478288  0.5359432212085800   T   T   T
  0.5000007413255521  0.7499999633234132  0.5818121138137491   T   T   T
  0.5936352400005606  0.8750000458987326  0.6201202577877029   T   T   T
  0.9063656645372458  0.8750000649534611  0.6201202951225987   T   T   T
  0.7500005815060203  0.7499999542700798  0.5942580855056109   T   T   T
  0.7500002067803934  0.7499999169806491  0.6401254208189769   T   T   T
  0.2500000000000000  0.1250000000000000  0.3828652386814965   F   F   F
  0.0000000000000000  0.0000000000000000  0.3828652386814965   F   F   F
  0.0000000000000000  0.1250000000000000  0.4414326193407446   F   F   F
  0.2500000000000000  0.0000000000000000  0.4414326193407446   F   F   F
  0.2500000000000000  0.1250000000000000  0.5000000000000000   F   F   F
  0.0000000000000000  0.0000000000000000  0.5000000000000000   F   F   F
  0.4999950501122327  0.1249999636722289  0.5573340606639139   T   T   T
  0.2499962250722868  0.0000000246682895  0.5607003025198194   T   T   T
  0.2500006483489770  0.1250004838868474  0.6208864341466445   T   T   T
  0.0000005080000396  0.9999999900344908  0.6144387343520413   T   T   T
  0.2500000000000000  0.3750000000000000  0.3828652386814965   F   F   F
  0.0000000000000000  0.2500000000000000  0.3828652386814965   F   F   F
  0.0000000000000000  0.3750000000000000  0.4414326193407446   F   F   F
  0.2500000000000000  0.2500000000000000  0.4414326193407446   F   F   F
  0.2500000000000000  0.3750000000000000  0.5000000000000000   F   F   F
  0.0000000000000000  0.2500000000000000  0.5000000000000000   F   F   F
  0.4999950350690420  0.3750000461047014  0.5573340683897948   T   T   T
  0.2499962358398076  0.2500000407556915  0.5607003366688997   T   T   T
  0.2500006599529661  0.3749995480084337  0.6208865183634406   T   T   T
  0.0000004636441615  0.2500000415310546  0.6144387283722355   T   T   T
  0.2500000000000000  0.6250000000000000  0.3828652386814965   F   F   F
  0.0000000000000000  0.5000000000000000  0.3828652386814965   F   F   F
  0.0000000000000000  0.6250000000000000  0.4414326193407446   F   F   F
  0.2500000000000000  0.5000000000000000  0.4414326193407446   F   F   F
  0.2500000000000000  0.6250000000000000  0.5000000000000000   F   F   F
  0.0000000000000000  0.5000000000000000  0.5000000000000000   F   F   F
  0.4999950501122327  0.6249999636722289  0.5573340606639139   T   T   T
  0.2499962250722868  0.5000000246682895  0.5607003025198194   T   T   T
  0.2500006483489770  0.6250004838868475  0.6208864341466445   T   T   T
  0.0000005080000396  0.4999999900344908  0.6144387343520413   T   T   T
  0.2500000000000000  0.8750000000000001  0.3828652386814965   F   F   F
  0.0000000000000000  0.7500000000000000  0.3828652386814965   F   F   F
  0.0000000000000000  0.8750000000000001  0.4414326193407446   F   F   F
  0.2500000000000000  0.7500000000000000  0.4414326193407446   F   F   F
  0.2500000000000000  0.8750000000000001  0.5000000000000000   F   F   F
  0.0000000000000000  0.7500000000000000  0.5000000000000000   F   F   F
  0.4999950350690420  0.8750000461047015  0.5573340683897948   T   T   T
  0.2499962358398076  0.7500000407556915  0.5607003366688997   T   T   T
  0.2500006599529661  0.8749995480084336  0.6208865183634406   T   T   T
  0.0000004636441615  0.7500000415310547  0.6144387283722355   T   T   T
  0.7500000000000001  0.1250000000000000  0.3828652386814965   F   F   F
  0.5000000000000000  0.0000000000000000  0.3828652386814965   F   F   F
  0.5000000000000000  0.1250000000000000  0.4414326193407446   F   F   F
  0.7500000000000001  0.0000000000000000  0.4414326193407446   F   F   F
  0.7500000000000001  0.1250000000000000  0.5000000000000000   F   F   F
  0.5000000000000000  0.0000000000000000  0.5000000000000000   F   F   F
  0.9999950501122327  0.1249999636722289  0.5573340606639139   T   T   T
  0.7499962250722868  0.0000000246682895  0.5607003025198194   T   T   T
  0.7500006483489771  0.1250004838868474  0.6208864341466445   T   T   T
  0.5000005080000396  0.9999999900344908  0.6144387343520413   T   T   T
  0.7500000000000001  0.3750000000000000  0.3828652386814965   F   F   F
  0.5000000000000000  0.2500000000000000  0.3828652386814965   F   F   F
  0.5000000000000000  0.3750000000000000  0.4414326193407446   F   F   F
  0.7500000000000001  0.2500000000000000  0.4414326193407446   F   F   F
  0.7500000000000001  0.3750000000000000  0.5000000000000000   F   F   F
  0.5000000000000000  0.2500000000000000  0.5000000000000000   F   F   F
  0.9999950350690421  0.3750000461047014  0.5573340683897948   T   T   T
  0.7499962358398076  0.2500000407556915  0.5607003366688997   T   T   T
  0.7500006599529661  0.3749995480084337  0.6208865183634406   T   T   T
  0.5000004636441615  0.2500000415310546  0.6144387283722355   T   T   T
  0.7500000000000001  0.6250000000000000  0.3828652386814965   F   F   F
  0.5000000000000000  0.5000000000000000  0.3828652386814965   F   F   F
  0.5000000000000000  0.6250000000000000  0.4414326193407446   F   F   F
  0.7500000000000001  0.5000000000000000  0.4414326193407446   F   F   F
  0.7500000000000001  0.6250000000000000  0.5000000000000000   F   F   F
  0.5000000000000000  0.5000000000000000  0.5000000000000000   F   F   F
  0.9999950501122327  0.6249999636722289  0.5573340606639139   T   T   T
  0.7499962250722868  0.5000000246682895  0.5607003025198194   T   T   T
  0.7500006483489771  0.6250004838868475  0.6208864341466445   T   T   T
  0.5000005080000396  0.4999999900344908  0.6144387343520413   T   T   T
  0.7500000000000001  0.8750000000000001  0.3828652386814965   F   F   F
  0.5000000000000000  0.7500000000000000  0.3828652386814965   F   F   F
  0.5000000000000000  0.8750000000000001  0.4414326193407446   F   F   F
  0.7500000000000001  0.7500000000000000  0.4414326193407446   F   F   F
  0.7500000000000001  0.8750000000000001  0.5000000000000000   F   F   F
  0.5000000000000000  0.7500000000000000  0.5000000000000000   F   F   F
  0.9999950350690421  0.8750000461047015  0.5573340683897948   T   T   T
  0.7499962358398076  0.7500000407556915  0.5607003366688997   T   T   T
  0.7500006599529661  0.8749995480084336  0.6208865183634406   T   T   T
  0.5000004636441615  0.7500000415310547  0.6144387283722355   T   T   T
