 O Ti                                   
   1.00000000000000     
    13.0160748915413169    0.0000000000000000    0.0000000000000000
     0.0000000000000000   11.8443707738385253    0.0000000000000000
     0.0000000000000000    0.0000000000000000   13.0160748915413151
   O    Ti
   128    64
Direct
  0.5000000000000000  0.5000000000000000  0.5000000000000000
  0.8045353797002406  0.5000000000000000  0.0000000000000000
  0.6522676898501203  0.3750000000000000  0.4022676898501203
  0.6522676898501203  0.3750000000000000  0.0977323101498797
  0.7500000000000000  0.5000000000000000  0.2500000000000000
  0.5545353797002406  0.5000000000000000  0.2500000000000000
  0.4022676898501203  0.3750000000000000  0.1522676898501203
  0.4022676898501203  0.3750000000000000  0.3477323101498797
  0.5000000000000000  0.5000000000000000  0.0000000000000000
  0.8045353797002406  0.5000000000000000  0.5000000000000000
  0.6522676898501203  0.3750000000000000  0.9022676898501203
  0.6522676898501203  0.3750000000000000  0.5977323101498797
  0.7500000000000000  0.5000000000000000  0.7500000000000000
  0.5545353797002406  0.5000000000000000  0.7500000000000000
  0.4022676898501203  0.3750000000000000  0.6522676898501203
  0.4022676898501203  0.3750000000000000  0.8477323101498797
  0.5000000000000000  0.7500000000000000  0.5000000000000000
  0.8045353797002406  0.7500000000000000  0.0000000000000000
  0.6522676898501203  0.6250000000000000  0.4022676898501203
  0.6522676898501203  0.6250000000000000  0.0977323101498797
  0.7500000000000000  0.7500000000000000  0.2500000000000000
  0.5545353797002406  0.7500000000000000  0.2500000000000000
  0.4022676898501203  0.6250000000000000  0.1522676898501203
  0.4022676898501203  0.6250000000000000  0.3477323101498797
  0.5000000000000000  0.7500000000000000  0.0000000000000000
  0.8045353797002406  0.7500000000000000  0.5000000000000000
  0.6522676898501203  0.6250000000000000  0.9022676898501203
  0.6522676898501203  0.6250000000000000  0.5977323101498797
  0.7500000000000000  0.7500000000000000  0.7500000000000000
  0.5545353797002406  0.7500000000000000  0.7500000000000000
  0.4022676898501203  0.6250000000000000  0.6522676898501203
  0.4022676898501203  0.6250000000000000  0.8477323101498797
  0.5000000000000000  0.0000000000000000  0.5000000000000000
  0.8045353797002406  0.0000000000000000  0.0000000000000000
  0.6522676898501203  0.8750000000000000  0.4022676898501203
  0.6522676898501203  0.8750000000000000  0.0977323101498797
  0.7500000000000000  0.0000000000000000  0.2500000000000000
  0.5545353797002406  0.0000000000000000  0.2500000000000000
  0.4022676898501203  0.8750000000000000  0.1522676898501203
  0.4022676898501203  0.8750000000000000  0.3477323101498797
  0.5000000000000000  0.0000000000000000  0.0000000000000000
  0.8045353797002406  0.0000000000000000  0.5000000000000000
  0.6522676898501203  0.8750000000000000  0.9022676898501203
  0.6522676898501203  0.8750000000000000  0.5977323101498797
  0.7500000000000000  0.0000000000000000  0.7500000000000000
  0.5545353797002406  0.0000000000000000  0.7500000000000000
  0.4022676898501203  0.8750000000000000  0.6522676898501203
  0.4022676898501203  0.8750000000000000  0.8477323101498797
  0.5000000000000000  0.2500000000000000  0.5000000000000000
  0.8045353797002406  0.2500000000000000  0.0000000000000000
  0.6522676898501203  0.1250000000000000  0.4022676898501203
  0.6522676898501203  0.1250000000000000  0.0977323101498797
  0.7500000000000000  0.2500000000000000  0.2500000000000000
  0.5545353797002406  0.2500000000000000  0.2500000000000000
  0.4022676898501203  0.1250000000000000  0.1522676898501203
  0.4022676898501203  0.1250000000000000  0.3477323101498797
  0.5000000000000000  0.2500000000000000  0.0000000000000000
  0.8045353797002406  0.2500000000000000  0.5000000000000000
  0.6522676898501203  0.1250000000000000  0.9022676898501203
  0.6522676898501203  0.1250000000000000  0.5977323101498797
  0.7500000000000000  0.2500000000000000  0.7500000000000000
  0.5545353797002406  0.2500000000000000  0.7500000000000000
  0.4022676898501203  0.1250000000000000  0.6522676898501203
  0.4022676898501203  0.1250000000000000  0.8477323101498797
  0.0000000000000000  0.5000000000000000  0.5000000000000000
  0.3045353797002406  0.5000000000000000  0.0000000000000000
  0.1522676898501203  0.3750000000000000  0.4022676898501203
  0.1522676898501203  0.3750000000000000  0.0977323101498797
  0.2500000000000000  0.5000000000000000  0.2500000000000000
  0.0545353797002406  0.5000000000000000  0.2500000000000000
  0.9022676898501203  0.3750000000000000  0.1522676898501203
  0.9022676898501203  0.3750000000000000  0.3477323101498797
  0.0000000000000000  0.5000000000000000  0.0000000000000000
  0.3045353797002406  0.5000000000000000  0.5000000000000000
  0.1522676898501203  0.3750000000000000  0.9022676898501203
  0.1522676898501203  0.3750000000000000  0.5977323101498797
  0.2500000000000000  0.5000000000000000  0.7500000000000000
  0.0545353797002406  0.5000000000000000  0.7500000000000000
  0.9022676898501203  0.3750000000000000  0.6522676898501203
  0.9022676898501203  0.3750000000000000  0.8477323101498797
  0.0000000000000000  0.7500000000000000  0.5000000000000000
  0.3045353797002406  0.7500000000000000  0.0000000000000000
  0.1522676898501203  0.6250000000000000  0.4022676898501203
  0.1522676898501203  0.6250000000000000  0.0977323101498797
  0.2500000000000000  0.7500000000000000  0.2500000000000000
  0.0545353797002406  0.7500000000000000  0.2500000000000000
  0.9022676898501203  0.6250000000000000  0.1522676898501203
  0.9022676898501203  0.6250000000000000  0.3477323101498797
  0.0000000000000000  0.7500000000000000  0.0000000000000000
  0.3045353797002406  0.7500000000000000  0.5000000000000000
  0.1522676898501203  0.6250000000000000  0.9022676898501203
  0.1522676898501203  0.6250000000000000  0.5977323101498797
  0.2500000000000000  0.7500000000000000  0.7500000000000000
  0.0545353797002406  0.7500000000000000  0.7500000000000000
  0.9022676898501203  0.6250000000000000  0.6522676898501203
  0.9022676898501203  0.6250000000000000  0.8477323101498797
  0.0000000000000000  0.0000000000000000  0.5000000000000000
  0.3045353797002406  0.0000000000000000  0.0000000000000000
  0.1522676898501203  0.8750000000000000  0.4022676898501203
  0.1522676898501203  0.8750000000000000  0.0977323101498797
  0.2500000000000000  0.0000000000000000  0.2500000000000000
  0.0545353797002406  0.0000000000000000  0.2500000000000000
  0.9022676898501203  0.8750000000000000  0.1522676898501203
  0.9022676898501203  0.8750000000000000  0.3477323101498797
  0.0000000000000000  0.0000000000000000  0.0000000000000000
  0.3045353797002406  0.0000000000000000  0.5000000000000000
  0.1522676898501203  0.8750000000000000  0.9022676898501203
  0.1522676898501203  0.8750000000000000  0.5977323101498797
  0.2500000000000000  0.0000000000000000  0.7500000000000000
  0.0545353797002406  0.0000000000000000  0.7500000000000000
  0.9022676898501203  0.8750000000000000  0.6522676898501203
  0.9022676898501203  0.8750000000000000  0.8477323101498797
  0.0000000000000000  0.2500000000000000  0.5000000000000000
  0.3045353797002406  0.2500000000000000  0.0000000000000000
  0.1522676898501203  0.1250000000000000  0.4022676898501203
  0.1522676898501203  0.1250000000000000  0.0977323101498797
  0.2500000000000000  0.2500000000000000  0.2500000000000000
  0.0545353797002406  0.2500000000000000  0.2500000000000000
  0.9022676898501203  0.1250000000000000  0.1522676898501203
  0.9022676898501203  0.1250000000000000  0.3477323101498797
  0.0000000000000000  0.2500000000000000  0.0000000000000000
  0.3045353797002406  0.2500000000000000  0.5000000000000000
  0.1522676898501203  0.1250000000000000  0.9022676898501203
  0.1522676898501203  0.1250000000000000  0.5977323101498797
  0.2500000000000000  0.2500000000000000  0.7500000000000000
  0.0545353797002406  0.2500000000000000  0.7500000000000000
  0.9022676898501203  0.1250000000000000  0.6522676898501203
  0.9022676898501203  0.1250000000000000  0.8477323101498797
  0.6522676898501203  0.5000000000000000  0.0000000000000000
  0.4022676898501203  0.3750000000000000  0.0000000000000000
  0.4022676898501203  0.5000000000000000  0.2500000000000000
  0.6522676898501203  0.3750000000000000  0.2500000000000000
  0.6522676898501203  0.5000000000000000  0.5000000000000000
  0.4022676898501203  0.3750000000000000  0.5000000000000000
  0.4022676898501203  0.5000000000000000  0.7500000000000000
  0.6522676898501203  0.3750000000000000  0.7500000000000000
  0.6522676898501203  0.7500000000000000  0.0000000000000000
  0.4022676898501203  0.6250000000000000  0.0000000000000000
  0.4022676898501203  0.7500000000000000  0.2500000000000000
  0.6522676898501203  0.6250000000000000  0.2500000000000000
  0.6522676898501203  0.7500000000000000  0.5000000000000000
  0.4022676898501203  0.6250000000000000  0.5000000000000000
  0.4022676898501203  0.7500000000000000  0.7500000000000000
  0.6522676898501203  0.6250000000000000  0.7500000000000000
  0.6522676898501203  0.0000000000000000  0.0000000000000000
  0.4022676898501203  0.8750000000000000  0.0000000000000000
  0.4022676898501203  0.0000000000000000  0.2500000000000000
  0.6522676898501203  0.8750000000000000  0.2500000000000000
  0.6522676898501203  0.0000000000000000  0.5000000000000000
  0.4022676898501203  0.8750000000000000  0.5000000000000000
  0.4022676898501203  0.0000000000000000  0.7500000000000000
  0.6522676898501203  0.8750000000000000  0.7500000000000000
  0.6522676898501203  0.2500000000000000  0.0000000000000000
  0.4022676898501203  0.1250000000000000  0.0000000000000000
  0.4022676898501203  0.2500000000000000  0.2500000000000000
  0.6522676898501203  0.1250000000000000  0.2500000000000000
  0.6522676898501203  0.2500000000000000  0.5000000000000000
  0.4022676898501203  0.1250000000000000  0.5000000000000000
  0.4022676898501203  0.2500000000000000  0.7500000000000000
  0.6522676898501203  0.1250000000000000  0.7500000000000000
  0.1522676898501203  0.5000000000000000  0.0000000000000000
  0.9022676898501203  0.3750000000000000  0.0000000000000000
  0.9022676898501203  0.5000000000000000  0.2500000000000000
  0.1522676898501203  0.3750000000000000  0.2500000000000000
  0.1522676898501203  0.5000000000000000  0.5000000000000000
  0.9022676898501203  0.3750000000000000  0.5000000000000000
  0.9022676898501203  0.5000000000000000  0.7500000000000000
  0.1522676898501203  0.3750000000000000  0.7500000000000000
  0.1522676898501203  0.7500000000000000  0.0000000000000000
  0.9022676898501203  0.6250000000000000  0.0000000000000000
  0.9022676898501203  0.7500000000000000  0.2500000000000000
  0.1522676898501203  0.6250000000000000  0.2500000000000000
  0.1522676898501203  0.7500000000000000  0.5000000000000000
  0.9022676898501203  0.6250000000000000  0.5000000000000000
  0.9022676898501203  0.7500000000000000  0.7500000000000000
  0.1522676898501203  0.6250000000000000  0.7500000000000000
  0.1522676898501203  0.0000000000000000  0.0000000000000000
  0.9022676898501203  0.8750000000000000  0.0000000000000000
  0.9022676898501203  0.0000000000000000  0.2500000000000000
  0.1522676898501203  0.8750000000000000  0.2500000000000000
  0.1522676898501203  0.0000000000000000  0.5000000000000000
  0.9022676898501203  0.8750000000000000  0.5000000000000000
  0.9022676898501203  0.0000000000000000  0.7500000000000000
  0.1522676898501203  0.8750000000000000  0.7500000000000000
  0.1522676898501203  0.2500000000000000  0.0000000000000000
  0.9022676898501203  0.1250000000000000  0.0000000000000000
  0.9022676898501203  0.2500000000000000  0.2500000000000000
  0.1522676898501203  0.1250000000000000  0.2500000000000000
  0.1522676898501203  0.2500000000000000  0.5000000000000000
  0.9022676898501203  0.1250000000000000  0.5000000000000000
  0.9022676898501203  0.2500000000000000  0.7500000000000000
  0.1522676898501203  0.1250000000000000  0.7500000000000000
 
  0.00000000E+00  0.00000000E+00  0.00000000E+00
  0.00000000E+00  0.00000000E+00  0.00000000E+00
  0.00000000E+00  0.00000000E+00  0.00000000E+00
  0.00000000E+00  0.00000000E+00  0.00000000E+00
  0.00000000E+00  0.00000000E+00  0.00000000E+00
  0.00000000E+00  0.00000000E+00  0.00000000E+00
  0.00000000E+00  0.00000000E+00  0.00000000E+00
  0.00000000E+00  0.00000000E+00  0.00000000E+00
  0.00000000E+00  0.00000000E+00  0.00000000E+00
  0.00000000E+00  0.00000000E+00  0.00000000E+00
  0.00000000E+00  0.00000000E+00  0.00000000E+00
  0.00000000E+00  0.00000000E+00  0.00000000E+00
  0.00000000E+00  0.00000000E+00  0.00000000E+00
  0.00000000E+00  0.00000000E+00  0.00000000E+00
  0.00000000E+00  0.00000000E+00  0.00000000E+00
  0.00000000E+00  0.00000000E+00  0.00000000E+00
  0.00000000E+00  0.00000000E+00  0.00000000E+00
  0.00000000E+00  0.00000000E+00  0.00000000E+00
  0.00000000E+00  0.00000000E+00  0.00000000E+00
  0.00000000E+00  0.00000000E+00  0.00000000E+00
  0.00000000E+00  0.00000000E+00  0.00000000E+00
  0.00000000E+00  0.00000000E+00  0.00000000E+00
  0.00000000E+00  0.00000000E+00  0.00000000E+00
  0.00000000E+00  0.00000000E+00  0.00000000E+00
  0.00000000E+00  0.00000000E+00  0.00000000E+00
  0.00000000E+00  0.00000000E+00  0.00000000E+00
  0.00000000E+00  0.00000000E+00  0.00000000E+00
  0.00000000E+00  0.00000000E+00  0.00000000E+00
  0.00000000E+00  0.00000000E+00  0.00000000E+00
  0.00000000E+00  0.00000000E+00  0.00000000E+00
  0.00000000E+00  0.00000000E+00  0.00000000E+00
  0.00000000E+00  0.00000000E+00  0.00000000E+00
  0.00000000E+00  0.00000000E+00  0.00000000E+00
  0.00000000E+00  0.00000000E+00  0.00000000E+00
  0.00000000E+00  0.00000000E+00  0.00000000E+00
  0.00000000E+00  0.00000000E+00  0.00000000E+00
  0.00000000E+00  0.00000000E+00  0.00000000E+00
  0.00000000E+00  0.00000000E+00  0.00000000E+00
  0.00000000E+00  0.00000000E+00  0.00000000E+00
  0.00000000E+00  0.00000000E+00  0.00000000E+00
  0.00000000E+00  0.00000000E+00  0.00000000E+00
  0.00000000E+00  0.00000000E+00  0.00000000E+00
  0.00000000E+00  0.00000000E+00  0.00000000E+00
  0.00000000E+00  0.00000000E+00  0.00000000E+00
  0.00000000E+00  0.00000000E+00  0.00000000E+00
  0.00000000E+00  0.00000000E+00  0.00000000E+00
  0.00000000E+00  0.00000000E+00  0.00000000E+00
  0.00000000E+00  0.00000000E+00  0.00000000E+00
  0.00000000E+00  0.00000000E+00  0.00000000E+00
  0.00000000E+00  0.00000000E+00  0.00000000E+00
  0.00000000E+00  0.00000000E+00  0.00000000E+00
  0.00000000E+00  0.00000000E+00  0.00000000E+00
  0.00000000E+00  0.00000000E+00  0.00000000E+00
  0.00000000E+00  0.00000000E+00  0.00000000E+00
  0.00000000E+00  0.00000000E+00  0.00000000E+00
  0.00000000E+00  0.00000000E+00  0.00000000E+00
  0.00000000E+00  0.00000000E+00  0.00000000E+00
  0.00000000E+00  0.00000000E+00  0.00000000E+00
  0.00000000E+00  0.00000000E+00  0.00000000E+00
  0.00000000E+00  0.00000000E+00  0.00000000E+00
  0.00000000E+00  0.00000000E+00  0.00000000E+00
  0.00000000E+00  0.00000000E+00  0.00000000E+00
  0.00000000E+00  0.00000000E+00  0.00000000E+00
  0.00000000E+00  0.00000000E+00  0.00000000E+00
  0.00000000E+00  0.00000000E+00  0.00000000E+00
  0.00000000E+00  0.00000000E+00  0.00000000E+00
  0.00000000E+00  0.00000000E+00  0.00000000E+00
  0.00000000E+00  0.00000000E+00  0.00000000E+00
  0.00000000E+00  0.00000000E+00  0.00000000E+00
  0.00000000E+00  0.00000000E+00  0.00000000E+00
  0.00000000E+00  0.00000000E+00  0.00000000E+00
  0.00000000E+00  0.00000000E+00  0.00000000E+00
  0.00000000E+00  0.00000000E+00  0.00000000E+00
  0.00000000E+00  0.00000000E+00  0.00000000E+00
  0.00000000E+00  0.00000000E+00  0.00000000E+00
  0.00000000E+00  0.00000000E+00  0.00000000E+00
  0.00000000E+00  0.00000000E+00  0.00000000E+00
  0.00000000E+00  0.00000000E+00  0.00000000E+00
  0.00000000E+00  0.00000000E+00  0.00000000E+00
  0.00000000E+00  0.00000000E+00  0.00000000E+00
  0.00000000E+00  0.00000000E+00  0.00000000E+00
  0.00000000E+00  0.00000000E+00  0.00000000E+00
  0.00000000E+00  0.00000000E+00  0.00000000E+00
  0.00000000E+00  0.00000000E+00  0.00000000E+00
  0.00000000E+00  0.00000000E+00  0.00000000E+00
  0.00000000E+00  0.00000000E+00  0.00000000E+00
  0.00000000E+00  0.00000000E+00  0.00000000E+00
  0.00000000E+00  0.00000000E+00  0.00000000E+00
  0.00000000E+00  0.00000000E+00  0.00000000E+00
  0.00000000E+00  0.00000000E+00  0.00000000E+00
  0.00000000E+00  0.00000000E+00  0.00000000E+00
  0.00000000E+00  0.00000000E+00  0.00000000E+00
  0.00000000E+00  0.00000000E+00  0.00000000E+00
  0.00000000E+00  0.00000000E+00  0.00000000E+00
  0.00000000E+00  0.00000000E+00  0.00000000E+00
  0.00000000E+00  0.00000000E+00  0.00000000E+00
  0.00000000E+00  0.00000000E+00  0.00000000E+00
  0.00000000E+00  0.00000000E+00  0.00000000E+00
  0.00000000E+00  0.00000000E+00  0.00000000E+00
  0.00000000E+00  0.00000000E+00  0.00000000E+00
  0.00000000E+00  0.00000000E+00  0.00000000E+00
  0.00000000E+00  0.00000000E+00  0.00000000E+00
  0.00000000E+00  0.00000000E+00  0.00000000E+00
  0.00000000E+00  0.00000000E+00  0.00000000E+00
  0.00000000E+00  0.00000000E+00  0.00000000E+00
  0.00000000E+00  0.00000000E+00  0.00000000E+00
  0.00000000E+00  0.00000000E+00  0.00000000E+00
  0.00000000E+00  0.00000000E+00  0.00000000E+00
  0.00000000E+00  0.00000000E+00  0.00000000E+00
  0.00000000E+00  0.00000000E+00  0.00000000E+00
  0.00000000E+00  0.00000000E+00  0.00000000E+00
  0.00000000E+00  0.00000000E+00  0.00000000E+00
  0.00000000E+00  0.00000000E+00  0.00000000E+00
  0.00000000E+00  0.00000000E+00  0.00000000E+00
  0.00000000E+00  0.00000000E+00  0.00000000E+00
  0.00000000E+00  0.00000000E+00  0.00000000E+00
  0.00000000E+00  0.00000000E+00  0.00000000E+00
  0.00000000E+00  0.00000000E+00  0.00000000E+00
  0.00000000E+00  0.00000000E+00  0.00000000E+00
  0.00000000E+00  0.00000000E+00  0.00000000E+00
  0.00000000E+00  0.00000000E+00  0.00000000E+00
  0.00000000E+00  0.00000000E+00  0.00000000E+00
  0.00000000E+00  0.00000000E+00  0.00000000E+00
  0.00000000E+00  0.00000000E+00  0.00000000E+00
  0.00000000E+00  0.00000000E+00  0.00000000E+00
  0.00000000E+00  0.00000000E+00  0.00000000E+00
  0.00000000E+00  0.00000000E+00  0.00000000E+00
  0.00000000E+00  0.00000000E+00  0.00000000E+00
  0.00000000E+00  0.00000000E+00  0.00000000E+00
  0.00000000E+00  0.00000000E+00  0.00000000E+00
  0.00000000E+00  0.00000000E+00  0.00000000E+00
  0.00000000E+00  0.00000000E+00  0.00000000E+00
  0.00000000E+00  0.00000000E+00  0.00000000E+00
  0.00000000E+00  0.00000000E+00  0.00000000E+00
  0.00000000E+00  0.00000000E+00  0.00000000E+00
  0.00000000E+00  0.00000000E+00  0.00000000E+00
  0.00000000E+00  0.00000000E+00  0.00000000E+00
  0.00000000E+00  0.00000000E+00  0.00000000E+00
  0.00000000E+00  0.00000000E+00  0.00000000E+00
  0.00000000E+00  0.00000000E+00  0.00000000E+00
  0.00000000E+00  0.00000000E+00  0.00000000E+00
  0.00000000E+00  0.00000000E+00  0.00000000E+00
  0.00000000E+00  0.00000000E+00  0.00000000E+00
  0.00000000E+00  0.00000000E+00  0.00000000E+00
  0.00000000E+00  0.00000000E+00  0.00000000E+00
  0.00000000E+00  0.00000000E+00  0.00000000E+00
  0.00000000E+00  0.00000000E+00  0.00000000E+00
  0.00000000E+00  0.00000000E+00  0.00000000E+00
  0.00000000E+00  0.00000000E+00  0.00000000E+00
  0.00000000E+00  0.00000000E+00  0.00000000E+00
  0.00000000E+00  0.00000000E+00  0.00000000E+00
  0.00000000E+00  0.00000000E+00  0.00000000E+00
  0.00000000E+00  0.00000000E+00  0.00000000E+00
  0.00000000E+00  0.00000000E+00  0.00000000E+00
  0.00000000E+00  0.00000000E+00  0.00000000E+00
  0.00000000E+00  0.00000000E+00  0.00000000E+00
  0.00000000E+00  0.00000000E+00  0.00000000E+00
  0.00000000E+00  0.00000000E+00  0.00000000E+00
  0.00000000E+00  0.00000000E+00  0.00000000E+00
  0.00000000E+00  0.00000000E+00  0.00000000E+00
  0.00000000E+00  0.00000000E+00  0.00000000E+00
  0.00000000E+00  0.00000000E+00  0.00000000E+00
  0.00000000E+00  0.00000000E+00  0.00000000E+00
  0.00000000E+00  0.00000000E+00  0.00000000E+00
  0.00000000E+00  0.00000000E+00  0.00000000E+00
  0.00000000E+00  0.00000000E+00  0.00000000E+00
  0.00000000E+00  0.00000000E+00  0.00000000E+00
  0.00000000E+00  0.00000000E+00  0.00000000E+00
  0.00000000E+00  0.00000000E+00  0.00000000E+00
  0.00000000E+00  0.00000000E+00  0.00000000E+00
  0.00000000E+00  0.00000000E+00  0.00000000E+00
  0.00000000E+00  0.00000000E+00  0.00000000E+00
  0.00000000E+00  0.00000000E+00  0.00000000E+00
  0.00000000E+00  0.00000000E+00  0.00000000E+00
  0.00000000E+00  0.00000000E+00  0.00000000E+00
  0.00000000E+00  0.00000000E+00  0.00000000E+00
  0.00000000E+00  0.00000000E+00  0.00000000E+00
  0.00000000E+00  0.00000000E+00  0.00000000E+00
  0.00000000E+00  0.00000000E+00  0.00000000E+00
  0.00000000E+00  0.00000000E+00  0.00000000E+00
  0.00000000E+00  0.00000000E+00  0.00000000E+00
  0.00000000E+00  0.00000000E+00  0.00000000E+00
  0.00000000E+00  0.00000000E+00  0.00000000E+00
  0.00000000E+00  0.00000000E+00  0.00000000E+00
  0.00000000E+00  0.00000000E+00  0.00000000E+00
  0.00000000E+00  0.00000000E+00  0.00000000E+00
  0.00000000E+00  0.00000000E+00  0.00000000E+00
  0.00000000E+00  0.00000000E+00  0.00000000E+00
  0.00000000E+00  0.00000000E+00  0.00000000E+00
  0.00000000E+00  0.00000000E+00  0.00000000E+00
  0.00000000E+00  0.00000000E+00  0.00000000E+00
  0.00000000E+00  0.00000000E+00  0.00000000E+00
