Ti  O                                   
   1.00000000000000     
    12.9956992448922488    0.0000000000000000    0.0000000000000000
     0.0000000000000000   11.7684137168329119    0.0000000000000000
     0.0000000000000000    0.0000000000000000   12.9956992448922470
   Ti   O 
    64   127
Direct
  0.2500000000000000  0.1250000000000000  0.1088216598217215
  0.0000000000000000  0.0000000000000000  0.1088216598217215
  0.0000000000000000  0.1250000000000000  0.3588216598217215
  0.2500000000000000  0.0000000000000000  0.3588216598217215
  0.2500000000000000  0.1250000000000000  0.6088216598217215
  0.0000000000000000  0.0000000000000000  0.6088216598217215
  0.0000000000000000  0.1250000000000000  0.8588216598217215
  0.2500000000000000  0.0000000000000000  0.8588216598217215
  0.2500000000000000  0.3750000000000000  0.1088216598217215
  0.0000000000000000  0.2500000000000000  0.1088216598217215
  0.0000000000000000  0.3750000000000000  0.3588216598217215
  0.2500000000000000  0.2500000000000000  0.3588216598217215
  0.2500000000000000  0.3750000000000000  0.6088216598217215
  0.0000000000000000  0.2500000000000000  0.6088216598217215
  0.0000000000000000  0.3750000000000000  0.8588216598217215
  0.2500000000000000  0.2500000000000000  0.8588216598217215
  0.2500000000000000  0.6250000000000000  0.1088216598217215
  0.0000000000000000  0.5000000000000000  0.1088216598217215
  0.0000000000000000  0.6250000000000000  0.3588216598217215
  0.2500000000000000  0.5000000000000000  0.3588216598217215
  0.2500000000000000  0.6250000000000000  0.6088216598217215
  0.0000000000000000  0.5000000000000000  0.6088216598217215
  0.0000000000000000  0.6250000000000000  0.8588216598217215
  0.2500000000000000  0.5000000000000000  0.8588216598217215
  0.2500000000000000  0.8750000000000000  0.1088216598217215
  0.0000000000000000  0.7500000000000000  0.1088216598217215
  0.0000000000000000  0.8750000000000000  0.3588216598217215
  0.2500000000000000  0.7500000000000000  0.3588216598217215
  0.2500000000000000  0.8750000000000000  0.6088216598217215
  0.0000000000000000  0.7500000000000000  0.6088216598217215
  0.0000000000000000  0.8750000000000000  0.8588216598217215
  0.2500000000000000  0.7500000000000000  0.8588216598217215
  0.7500000000000000  0.1250000000000000  0.1088216598217215
  0.5000000000000000  0.0000000000000000  0.1088216598217215
  0.5000000000000000  0.1250000000000000  0.3588216598217215
  0.7500000000000000  0.0000000000000000  0.3588216598217215
  0.7500000000000000  0.1250000000000000  0.6088216598217215
  0.5000000000000000  0.0000000000000000  0.6088216598217215
  0.5000000000000000  0.1250000000000000  0.8588216598217215
  0.7500000000000000  0.0000000000000000  0.8588216598217215
  0.7500000000000000  0.3750000000000000  0.1088216598217215
  0.5000000000000000  0.2500000000000000  0.1088216598217215
  0.5000000000000000  0.3750000000000000  0.3588216598217215
  0.7500000000000000  0.2500000000000000  0.3588216598217215
  0.7500000000000000  0.3750000000000000  0.6088216598217215
  0.5000000000000000  0.2500000000000000  0.6088216598217215
  0.5000000000000000  0.3750000000000000  0.8588216598217215
  0.7500000000000000  0.2500000000000000  0.8588216598217215
  0.7500000000000000  0.6250000000000000  0.1088216598217215
  0.5000000000000000  0.5000000000000000  0.1088216598217215
  0.5000000000000000  0.6250000000000000  0.3588216598217215
  0.7500000000000000  0.5000000000000000  0.3588216598217215
  0.7500000000000000  0.6250000000000000  0.6088216598217215
  0.5000000000000000  0.5000000000000000  0.6088216598217215
  0.5000000000000000  0.6250000000000000  0.8588216598217215
  0.7500000000000000  0.5000000000000000  0.8588216598217215
  0.7500000000000000  0.8750000000000000  0.1088216598217215
  0.5000000000000000  0.7500000000000000  0.1088216598217215
  0.5000000000000000  0.8750000000000000  0.3588216598217215
  0.7500000000000000  0.7500000000000000  0.3588216598217215
  0.7500000000000000  0.8750000000000000  0.6088216598217215
  0.5000000000000000  0.7500000000000000  0.6088216598217215
  0.5000000000000000  0.8750000000000000  0.8588216598217215
  0.7500000000000000  0.7500000000000000  0.8588216598217215
  0.0978415350988655  0.1250000000000000  0.1088216598217215
  0.4021584649011345  0.1250000000000000  0.1088216598217215
  0.2500000000000000  0.0000000000000000  0.0109801247228560
  0.2500000000000000  0.0000000000000000  0.2066631949205870
  0.3478415350988655  0.1250000000000000  0.3588216598217215
  0.1521584649011345  0.1250000000000000  0.3588216598217215
  0.0000000000000000  0.0000000000000000  0.2609801247228560
  0.0000000000000000  0.0000000000000000  0.4566631949205870
  0.0978415350988655  0.1250000000000000  0.6088216598217215
  0.4021584649011345  0.1250000000000000  0.6088216598217215
  0.2500000000000000  0.0000000000000000  0.5109801247228560
  0.2500000000000000  0.0000000000000000  0.7066631949205870
  0.3478415350988655  0.1250000000000000  0.8588216598217215
  0.1521584649011345  0.1250000000000000  0.8588216598217215
  0.0000000000000000  0.0000000000000000  0.7609801247228560
  0.0000000000000000  0.0000000000000000  0.9566631949205870
  0.0978415350988655  0.3750000000000000  0.1088216598217215
  0.4021584649011345  0.3750000000000000  0.1088216598217215
  0.2500000000000000  0.2500000000000000  0.0109801247228560
  0.2500000000000000  0.2500000000000000  0.2066631949205870
  0.3478415350988655  0.3750000000000000  0.3588216598217215
  0.1521584649011345  0.3750000000000000  0.3588216598217215
  0.0000000000000000  0.2500000000000000  0.2609801247228560
  0.0000000000000000  0.2500000000000000  0.4566631949205870
  0.0978415350988655  0.3750000000000000  0.6088216598217215
  0.4021584649011345  0.3750000000000000  0.6088216598217215
  0.2500000000000000  0.2500000000000000  0.5109801247228560
  0.2500000000000000  0.2500000000000000  0.7066631949205870
  0.3478415350988655  0.3750000000000000  0.8588216598217215
  0.1521584649011345  0.3750000000000000  0.8588216598217215
  0.0000000000000000  0.2500000000000000  0.7609801247228560
  0.0000000000000000  0.2500000000000000  0.9566631949205870
  0.0978415350988655  0.6250000000000000  0.1088216598217215
  0.4021584649011345  0.6250000000000000  0.1088216598217215
  0.2500000000000000  0.5000000000000000  0.0109801247228560
  0.2500000000000000  0.5000000000000000  0.2066631949205870
  0.3478415350988655  0.6250000000000000  0.3588216598217215
  0.1521584649011345  0.6250000000000000  0.3588216598217215
  0.0000000000000000  0.5000000000000000  0.2609801247228560
  0.0000000000000000  0.5000000000000000  0.4566631949205870
  0.0978415350988655  0.6250000000000000  0.6088216598217215
  0.4021584649011345  0.6250000000000000  0.6088216598217215
  0.2500000000000000  0.5000000000000000  0.5109801247228560
  0.2500000000000000  0.5000000000000000  0.7066631949205870
  0.3478415350988655  0.6250000000000000  0.8588216598217215
  0.1521584649011345  0.6250000000000000  0.8588216598217215
  0.0000000000000000  0.5000000000000000  0.7609801247228560
  0.0000000000000000  0.5000000000000000  0.9566631949205870
  0.0978415350988655  0.8750000000000000  0.1088216598217215
  0.4021584649011345  0.8750000000000000  0.1088216598217215
  0.2500000000000000  0.7500000000000000  0.0109801247228560
  0.2500000000000000  0.7500000000000000  0.2066631949205870
  0.3478415350988655  0.8750000000000000  0.3588216598217215
  0.1521584649011345  0.8750000000000000  0.3588216598217215
  0.0000000000000000  0.7500000000000000  0.2609801247228560
  0.0000000000000000  0.7500000000000000  0.4566631949205870
  0.0978415350988655  0.8750000000000000  0.6088216598217215
  0.4021584649011345  0.8750000000000000  0.6088216598217215
  0.2500000000000000  0.7500000000000000  0.5109801247228560
  0.2500000000000000  0.7500000000000000  0.7066631949205870
  0.3478415350988655  0.8750000000000000  0.8588216598217215
  0.1521584649011345  0.8750000000000000  0.8588216598217215
  0.0000000000000000  0.7500000000000000  0.7609801247228560
  0.0000000000000000  0.7500000000000000  0.9566631949205870
  0.5978415350988655  0.1250000000000000  0.1088216598217215
  0.9021584649011345  0.1250000000000000  0.1088216598217215
  0.7500000000000000  0.0000000000000000  0.0109801247228560
  0.7500000000000000  0.0000000000000000  0.2066631949205870
  0.8478415350988655  0.1250000000000000  0.3588216598217215
  0.6521584649011345  0.1250000000000000  0.3588216598217215
  0.5000000000000000  0.0000000000000000  0.2609801247228560
  0.5000000000000000  0.0000000000000000  0.4566631949205870
  0.5978415350988655  0.1250000000000000  0.6088216598217215
  0.9021584649011345  0.1250000000000000  0.6088216598217215
  0.7500000000000000  0.0000000000000000  0.5109801247228560
  0.7500000000000000  0.0000000000000000  0.7066631949205870
  0.8478415350988655  0.1250000000000000  0.8588216598217215
  0.6521584649011345  0.1250000000000000  0.8588216598217215
  0.5000000000000000  0.0000000000000000  0.7609801247228560
  0.5000000000000000  0.0000000000000000  0.9566631949205870
  0.5978415350988655  0.3750000000000000  0.1088216598217215
  0.9021584649011345  0.3750000000000000  0.1088216598217215
  0.7500000000000000  0.2500000000000000  0.0109801247228560
  0.7500000000000000  0.2500000000000000  0.2066631949205870
  0.8478415350988655  0.3750000000000000  0.3588216598217215
  0.6521584649011345  0.3750000000000000  0.3588216598217215
  0.5000000000000000  0.2500000000000000  0.2609801247228560
  0.5000000000000000  0.2500000000000000  0.4566631949205870
  0.5978415350988655  0.3750000000000000  0.6088216598217215
  0.9021584649011345  0.3750000000000000  0.6088216598217215
  0.7500000000000000  0.2500000000000000  0.5109801247228560
  0.7500000000000000  0.2500000000000000  0.7066631949205870
  0.8478415350988655  0.3750000000000000  0.8588216598217215
  0.6521584649011345  0.3750000000000000  0.8588216598217215
  0.5000000000000000  0.2500000000000000  0.7609801247228560
  0.5000000000000000  0.2500000000000000  0.9566631949205870
  0.5978415350988655  0.6250000000000000  0.1088216598217215
  0.9021584649011345  0.6250000000000000  0.1088216598217215
  0.7500000000000000  0.5000000000000000  0.0109801247228560
  0.7500000000000000  0.5000000000000000  0.2066631949205870
  0.8478415350988655  0.6250000000000000  0.3588216598217215
  0.6521584649011345  0.6250000000000000  0.3588216598217215
  0.5000000000000000  0.5000000000000000  0.2609801247228560
  0.5978415350988655  0.6250000000000000  0.6088216598217215
  0.9021584649011345  0.6250000000000000  0.6088216598217215
  0.7500000000000000  0.5000000000000000  0.5109801247228560
  0.7500000000000000  0.5000000000000000  0.7066631949205870
  0.8478415350988655  0.6250000000000000  0.8588216598217215
  0.6521584649011345  0.6250000000000000  0.8588216598217215
  0.5000000000000000  0.5000000000000000  0.7609801247228560
  0.5000000000000000  0.5000000000000000  0.9566631949205870
  0.5978415350988655  0.8750000000000000  0.1088216598217215
  0.9021584649011345  0.8750000000000000  0.1088216598217215
  0.7500000000000000  0.7500000000000000  0.0109801247228560
  0.7500000000000000  0.7500000000000000  0.2066631949205870
  0.8478415350988655  0.8750000000000000  0.3588216598217215
  0.6521584649011345  0.8750000000000000  0.3588216598217215
  0.5000000000000000  0.7500000000000000  0.2609801247228560
  0.5000000000000000  0.7500000000000000  0.4566631949205870
  0.5978415350988655  0.8750000000000000  0.6088216598217215
  0.9021584649011345  0.8750000000000000  0.6088216598217215
  0.7500000000000000  0.7500000000000000  0.5109801247228560
  0.7500000000000000  0.7500000000000000  0.7066631949205870
  0.8478415350988655  0.8750000000000000  0.8588216598217215
  0.6521584649011345  0.8750000000000000  0.8588216598217215
  0.5000000000000000  0.7500000000000000  0.7609801247228560
  0.5000000000000000  0.7500000000000000  0.9566631949205870
 
  0.00000000E+00  0.00000000E+00  0.00000000E+00
  0.00000000E+00  0.00000000E+00  0.00000000E+00
  0.00000000E+00  0.00000000E+00  0.00000000E+00
  0.00000000E+00  0.00000000E+00  0.00000000E+00
  0.00000000E+00  0.00000000E+00  0.00000000E+00
  0.00000000E+00  0.00000000E+00  0.00000000E+00
  0.00000000E+00  0.00000000E+00  0.00000000E+00
  0.00000000E+00  0.00000000E+00  0.00000000E+00
  0.00000000E+00  0.00000000E+00  0.00000000E+00
  0.00000000E+00  0.00000000E+00  0.00000000E+00
  0.00000000E+00  0.00000000E+00  0.00000000E+00
  0.00000000E+00  0.00000000E+00  0.00000000E+00
  0.00000000E+00  0.00000000E+00  0.00000000E+00
  0.00000000E+00  0.00000000E+00  0.00000000E+00
  0.00000000E+00  0.00000000E+00  0.00000000E+00
  0.00000000E+00  0.00000000E+00  0.00000000E+00
  0.00000000E+00  0.00000000E+00  0.00000000E+00
  0.00000000E+00  0.00000000E+00  0.00000000E+00
  0.00000000E+00  0.00000000E+00  0.00000000E+00
  0.00000000E+00  0.00000000E+00  0.00000000E+00
  0.00000000E+00  0.00000000E+00  0.00000000E+00
  0.00000000E+00  0.00000000E+00  0.00000000E+00
  0.00000000E+00  0.00000000E+00  0.00000000E+00
  0.00000000E+00  0.00000000E+00  0.00000000E+00
  0.00000000E+00  0.00000000E+00  0.00000000E+00
  0.00000000E+00  0.00000000E+00  0.00000000E+00
  0.00000000E+00  0.00000000E+00  0.00000000E+00
  0.00000000E+00  0.00000000E+00  0.00000000E+00
  0.00000000E+00  0.00000000E+00  0.00000000E+00
  0.00000000E+00  0.00000000E+00  0.00000000E+00
  0.00000000E+00  0.00000000E+00  0.00000000E+00
  0.00000000E+00  0.00000000E+00  0.00000000E+00
  0.00000000E+00  0.00000000E+00  0.00000000E+00
  0.00000000E+00  0.00000000E+00  0.00000000E+00
  0.00000000E+00  0.00000000E+00  0.00000000E+00
  0.00000000E+00  0.00000000E+00  0.00000000E+00
  0.00000000E+00  0.00000000E+00  0.00000000E+00
  0.00000000E+00  0.00000000E+00  0.00000000E+00
  0.00000000E+00  0.00000000E+00  0.00000000E+00
  0.00000000E+00  0.00000000E+00  0.00000000E+00
  0.00000000E+00  0.00000000E+00  0.00000000E+00
  0.00000000E+00  0.00000000E+00  0.00000000E+00
  0.00000000E+00  0.00000000E+00  0.00000000E+00
  0.00000000E+00  0.00000000E+00  0.00000000E+00
  0.00000000E+00  0.00000000E+00  0.00000000E+00
  0.00000000E+00  0.00000000E+00  0.00000000E+00
  0.00000000E+00  0.00000000E+00  0.00000000E+00
  0.00000000E+00  0.00000000E+00  0.00000000E+00
  0.00000000E+00  0.00000000E+00  0.00000000E+00
  0.00000000E+00  0.00000000E+00  0.00000000E+00
  0.00000000E+00  0.00000000E+00  0.00000000E+00
  0.00000000E+00  0.00000000E+00  0.00000000E+00
  0.00000000E+00  0.00000000E+00  0.00000000E+00
  0.00000000E+00  0.00000000E+00  0.00000000E+00
  0.00000000E+00  0.00000000E+00  0.00000000E+00
  0.00000000E+00  0.00000000E+00  0.00000000E+00
  0.00000000E+00  0.00000000E+00  0.00000000E+00
  0.00000000E+00  0.00000000E+00  0.00000000E+00
  0.00000000E+00  0.00000000E+00  0.00000000E+00
  0.00000000E+00  0.00000000E+00  0.00000000E+00
  0.00000000E+00  0.00000000E+00  0.00000000E+00
  0.00000000E+00  0.00000000E+00  0.00000000E+00
  0.00000000E+00  0.00000000E+00  0.00000000E+00
  0.00000000E+00  0.00000000E+00  0.00000000E+00
  0.00000000E+00  0.00000000E+00  0.00000000E+00
  0.00000000E+00  0.00000000E+00  0.00000000E+00
  0.00000000E+00  0.00000000E+00  0.00000000E+00
  0.00000000E+00  0.00000000E+00  0.00000000E+00
  0.00000000E+00  0.00000000E+00  0.00000000E+00
  0.00000000E+00  0.00000000E+00  0.00000000E+00
  0.00000000E+00  0.00000000E+00  0.00000000E+00
  0.00000000E+00  0.00000000E+00  0.00000000E+00
  0.00000000E+00  0.00000000E+00  0.00000000E+00
  0.00000000E+00  0.00000000E+00  0.00000000E+00
  0.00000000E+00  0.00000000E+00  0.00000000E+00
  0.00000000E+00  0.00000000E+00  0.00000000E+00
  0.00000000E+00  0.00000000E+00  0.00000000E+00
  0.00000000E+00  0.00000000E+00  0.00000000E+00
  0.00000000E+00  0.00000000E+00  0.00000000E+00
  0.00000000E+00  0.00000000E+00  0.00000000E+00
  0.00000000E+00  0.00000000E+00  0.00000000E+00
  0.00000000E+00  0.00000000E+00  0.00000000E+00
  0.00000000E+00  0.00000000E+00  0.00000000E+00
  0.00000000E+00  0.00000000E+00  0.00000000E+00
  0.00000000E+00  0.00000000E+00  0.00000000E+00
  0.00000000E+00  0.00000000E+00  0.00000000E+00
  0.00000000E+00  0.00000000E+00  0.00000000E+00
  0.00000000E+00  0.00000000E+00  0.00000000E+00
  0.00000000E+00  0.00000000E+00  0.00000000E+00
  0.00000000E+00  0.00000000E+00  0.00000000E+00
  0.00000000E+00  0.00000000E+00  0.00000000E+00
  0.00000000E+00  0.00000000E+00  0.00000000E+00
  0.00000000E+00  0.00000000E+00  0.00000000E+00
  0.00000000E+00  0.00000000E+00  0.00000000E+00
  0.00000000E+00  0.00000000E+00  0.00000000E+00
  0.00000000E+00  0.00000000E+00  0.00000000E+00
  0.00000000E+00  0.00000000E+00  0.00000000E+00
  0.00000000E+00  0.00000000E+00  0.00000000E+00
  0.00000000E+00  0.00000000E+00  0.00000000E+00
  0.00000000E+00  0.00000000E+00  0.00000000E+00
  0.00000000E+00  0.00000000E+00  0.00000000E+00
  0.00000000E+00  0.00000000E+00  0.00000000E+00
  0.00000000E+00  0.00000000E+00  0.00000000E+00
  0.00000000E+00  0.00000000E+00  0.00000000E+00
  0.00000000E+00  0.00000000E+00  0.00000000E+00
  0.00000000E+00  0.00000000E+00  0.00000000E+00
  0.00000000E+00  0.00000000E+00  0.00000000E+00
  0.00000000E+00  0.00000000E+00  0.00000000E+00
  0.00000000E+00  0.00000000E+00  0.00000000E+00
  0.00000000E+00  0.00000000E+00  0.00000000E+00
  0.00000000E+00  0.00000000E+00  0.00000000E+00
  0.00000000E+00  0.00000000E+00  0.00000000E+00
  0.00000000E+00  0.00000000E+00  0.00000000E+00
  0.00000000E+00  0.00000000E+00  0.00000000E+00
  0.00000000E+00  0.00000000E+00  0.00000000E+00
  0.00000000E+00  0.00000000E+00  0.00000000E+00
  0.00000000E+00  0.00000000E+00  0.00000000E+00
  0.00000000E+00  0.00000000E+00  0.00000000E+00
  0.00000000E+00  0.00000000E+00  0.00000000E+00
  0.00000000E+00  0.00000000E+00  0.00000000E+00
  0.00000000E+00  0.00000000E+00  0.00000000E+00
  0.00000000E+00  0.00000000E+00  0.00000000E+00
  0.00000000E+00  0.00000000E+00  0.00000000E+00
  0.00000000E+00  0.00000000E+00  0.00000000E+00
  0.00000000E+00  0.00000000E+00  0.00000000E+00
  0.00000000E+00  0.00000000E+00  0.00000000E+00
  0.00000000E+00  0.00000000E+00  0.00000000E+00
  0.00000000E+00  0.00000000E+00  0.00000000E+00
  0.00000000E+00  0.00000000E+00  0.00000000E+00
  0.00000000E+00  0.00000000E+00  0.00000000E+00
  0.00000000E+00  0.00000000E+00  0.00000000E+00
  0.00000000E+00  0.00000000E+00  0.00000000E+00
  0.00000000E+00  0.00000000E+00  0.00000000E+00
  0.00000000E+00  0.00000000E+00  0.00000000E+00
  0.00000000E+00  0.00000000E+00  0.00000000E+00
  0.00000000E+00  0.00000000E+00  0.00000000E+00
  0.00000000E+00  0.00000000E+00  0.00000000E+00
  0.00000000E+00  0.00000000E+00  0.00000000E+00
  0.00000000E+00  0.00000000E+00  0.00000000E+00
  0.00000000E+00  0.00000000E+00  0.00000000E+00
  0.00000000E+00  0.00000000E+00  0.00000000E+00
  0.00000000E+00  0.00000000E+00  0.00000000E+00
  0.00000000E+00  0.00000000E+00  0.00000000E+00
  0.00000000E+00  0.00000000E+00  0.00000000E+00
  0.00000000E+00  0.00000000E+00  0.00000000E+00
  0.00000000E+00  0.00000000E+00  0.00000000E+00
  0.00000000E+00  0.00000000E+00  0.00000000E+00
  0.00000000E+00  0.00000000E+00  0.00000000E+00
  0.00000000E+00  0.00000000E+00  0.00000000E+00
  0.00000000E+00  0.00000000E+00  0.00000000E+00
  0.00000000E+00  0.00000000E+00  0.00000000E+00
  0.00000000E+00  0.00000000E+00  0.00000000E+00
  0.00000000E+00  0.00000000E+00  0.00000000E+00
  0.00000000E+00  0.00000000E+00  0.00000000E+00
  0.00000000E+00  0.00000000E+00  0.00000000E+00
  0.00000000E+00  0.00000000E+00  0.00000000E+00
  0.00000000E+00  0.00000000E+00  0.00000000E+00
  0.00000000E+00  0.00000000E+00  0.00000000E+00
  0.00000000E+00  0.00000000E+00  0.00000000E+00
  0.00000000E+00  0.00000000E+00  0.00000000E+00
  0.00000000E+00  0.00000000E+00  0.00000000E+00
  0.00000000E+00  0.00000000E+00  0.00000000E+00
  0.00000000E+00  0.00000000E+00  0.00000000E+00
  0.00000000E+00  0.00000000E+00  0.00000000E+00
  0.00000000E+00  0.00000000E+00  0.00000000E+00
  0.00000000E+00  0.00000000E+00  0.00000000E+00
  0.00000000E+00  0.00000000E+00  0.00000000E+00
  0.00000000E+00  0.00000000E+00  0.00000000E+00
  0.00000000E+00  0.00000000E+00  0.00000000E+00
  0.00000000E+00  0.00000000E+00  0.00000000E+00
  0.00000000E+00  0.00000000E+00  0.00000000E+00
  0.00000000E+00  0.00000000E+00  0.00000000E+00
  0.00000000E+00  0.00000000E+00  0.00000000E+00
  0.00000000E+00  0.00000000E+00  0.00000000E+00
  0.00000000E+00  0.00000000E+00  0.00000000E+00
  0.00000000E+00  0.00000000E+00  0.00000000E+00
  0.00000000E+00  0.00000000E+00  0.00000000E+00
  0.00000000E+00  0.00000000E+00  0.00000000E+00
  0.00000000E+00  0.00000000E+00  0.00000000E+00
  0.00000000E+00  0.00000000E+00  0.00000000E+00
  0.00000000E+00  0.00000000E+00  0.00000000E+00
  0.00000000E+00  0.00000000E+00  0.00000000E+00
  0.00000000E+00  0.00000000E+00  0.00000000E+00
  0.00000000E+00  0.00000000E+00  0.00000000E+00
  0.00000000E+00  0.00000000E+00  0.00000000E+00
  0.00000000E+00  0.00000000E+00  0.00000000E+00
  0.00000000E+00  0.00000000E+00  0.00000000E+00
  0.00000000E+00  0.00000000E+00  0.00000000E+00
  0.00000000E+00  0.00000000E+00  0.00000000E+00
  0.00000000E+00  0.00000000E+00  0.00000000E+00
  0.00000000E+00  0.00000000E+00  0.00000000E+00
