Ti2 O4                                  
   1.00000000000000     
     4.6004443331515246    0.0000000000000000    0.0000000000000000
     0.0000000000000000    4.6004443331515246    0.0000000000000000
     0.0000000000000000    0.0000000000000000    2.9600268651458319
   Ti   O 
     2     4
Direct
  0.5000000000000000  0.5000000000000000  0.5000000000000000
 -0.0000000000000000  0.0000000000000000  0.0000000000000000
  0.1954699282406826  0.8045300717593173  0.5000000000000000
  0.8045300717593173  0.1954699282406826  0.5000000000000000
  0.3045300717593174  0.3045300717593174 -0.0000000000000000
  0.6954699282406827  0.6954699282406827 -0.0000000000000000
 
  0.00000000E+00  0.00000000E+00  0.00000000E+00
  0.00000000E+00  0.00000000E+00  0.00000000E+00
  0.00000000E+00  0.00000000E+00  0.00000000E+00
  0.00000000E+00  0.00000000E+00  0.00000000E+00
  0.00000000E+00  0.00000000E+00  0.00000000E+00
  0.00000000E+00  0.00000000E+00  0.00000000E+00
