Ti2 O4                                  
   1.00000000000000     
     4.6457254826815610    0.0000000000000000    0.0000000000000000
     0.0000000000000000    4.6457254826815610    0.0000000000000000
     0.0000000000000000    0.0000000000000000    2.9657274337725834
   Ti   O 
     2     4
Direct
  0.5000000000000000  0.5000000000000000  0.5000000000000000
 -0.0000000000000000 -0.0000000000000000 -0.0000000000000000
  0.1950057982517825  0.8049942017482176  0.5000000000000000
  0.8049942017482176  0.1950057982517825  0.5000000000000000
  0.3049942017482176  0.3049942017482176 -0.0000000000000000
  0.6950057982517824  0.6950057982517824  0.0000000000000000
 
  0.00000000E+00  0.00000000E+00  0.00000000E+00
  0.00000000E+00  0.00000000E+00  0.00000000E+00
  0.00000000E+00  0.00000000E+00  0.00000000E+00
  0.00000000E+00  0.00000000E+00  0.00000000E+00
  0.00000000E+00  0.00000000E+00  0.00000000E+00
  0.00000000E+00  0.00000000E+00  0.00000000E+00
