Ti  O                                   
   1.00000000000000     
    13.1434743878538995    0.0000000000000000    0.0000000000000000
     0.0000000000000000   11.8684842001132971    0.0000000000000000
     0.0000000000000000    0.0000000000000000   13.1434743878538960
   Ti   O 
    64   127
Direct
  0.2500000000000000  0.1250000000000000  0.1075981525615504
  0.0000000000000000  0.0000000000000000  0.1075981525615504
  0.5000000000000000  0.1250000000000000  0.3575981525615504
  0.2500000000000000  0.0000000000000000  0.3575981525615504
  0.2500000000000000  0.1250000000000000  0.6075981525615504
  0.0000000000000000  0.0000000000000000  0.6075981525615504
  0.5000000000000000  0.1250000000000000  0.8575981525615504
  0.2500000000000000  0.0000000000000000  0.8575981525615504
  0.2500000000000000  0.3750000000000000  0.1075981525615504
  0.0000000000000000  0.2500000000000000  0.1075981525615504
  0.5000000000000000  0.3750000000000000  0.3575981525615504
  0.2500000000000000  0.2500000000000000  0.3575981525615504
  0.2500000000000000  0.3750000000000000  0.6075981525615504
  0.0000000000000000  0.2500000000000000  0.6075981525615504
  0.5000000000000000  0.3750000000000000  0.8575981525615504
  0.2500000000000000  0.2500000000000000  0.8575981525615504
  0.2500000000000000  0.6250000000000000  0.1075981525615504
  0.0000000000000000  0.5000000000000000  0.1075981525615504
  0.5000000000000000  0.6250000000000000  0.3575981525615504
  0.2500000000000000  0.5000000000000000  0.3575981525615504
  0.2500000000000000  0.6250000000000000  0.6075981525615504
  0.0000000000000000  0.5000000000000000  0.6075981525615504
  0.5000000000000000  0.6250000000000000  0.8575981525615504
  0.2500000000000000  0.5000000000000000  0.8575981525615504
  0.2500000000000000  0.8750000000000000  0.1075981525615504
  0.0000000000000000  0.7500000000000000  0.1075981525615504
  0.5000000000000000  0.8750000000000000  0.3575981525615504
  0.2500000000000000  0.7500000000000000  0.3575981525615504
  0.2500000000000000  0.8750000000000000  0.6075981525615504
  0.0000000000000000  0.7500000000000000  0.6075981525615504
  0.5000000000000000  0.8750000000000000  0.8575981525615504
  0.2500000000000000  0.7500000000000000  0.8575981525615504
  0.7500000000000000  0.1250000000000000  0.1075981525615504
  0.5000000000000000  0.0000000000000000  0.1075981525615504
  0.0000000000000000  0.1250000000000000  0.3575981525615504
  0.7500000000000000  0.0000000000000000  0.3575981525615504
  0.7500000000000000  0.1250000000000000  0.6075981525615504
  0.5000000000000000  0.0000000000000000  0.6075981525615504
  0.0000000000000000  0.1250000000000000  0.8575981525615504
  0.7500000000000000  0.0000000000000000  0.8575981525615504
  0.7500000000000000  0.3750000000000000  0.1075981525615504
  0.5000000000000000  0.2500000000000000  0.1075981525615504
  0.0000000000000000  0.3750000000000000  0.3575981525615504
  0.7500000000000000  0.2500000000000000  0.3575981525615504
  0.7500000000000000  0.3750000000000000  0.6075981525615504
  0.5000000000000000  0.2500000000000000  0.6075981525615504
  0.0000000000000000  0.3750000000000000  0.8575981525615504
  0.7500000000000000  0.2500000000000000  0.8575981525615504
  0.7500000000000000  0.6250000000000000  0.1075981525615504
  0.5000000000000000  0.5000000000000000  0.1075981525615504
  0.0000000000000000  0.6250000000000000  0.3575981525615504
  0.7500000000000000  0.5000000000000000  0.3575981525615504
  0.7500000000000000  0.6250000000000000  0.6075981525615504
  0.5000000000000000  0.5000000000000000  0.6075981525615504
  0.0000000000000000  0.6250000000000000  0.8575981525615504
  0.7500000000000000  0.5000000000000000  0.8575981525615504
  0.7500000000000000  0.8750000000000000  0.1075981525615504
  0.5000000000000000  0.7500000000000000  0.1075981525615504
  0.0000000000000000  0.8750000000000000  0.3575981525615504
  0.7500000000000000  0.7500000000000000  0.3575981525615504
  0.7500000000000000  0.8750000000000000  0.6075981525615504
  0.5000000000000000  0.7500000000000000  0.6075981525615504
  0.0000000000000000  0.8750000000000000  0.8575981525615504
  0.7500000000000000  0.7500000000000000  0.8575981525615504
  0.0975029960023193  0.1250000000000000  0.1075981525615504
  0.4024970039976807  0.1250000000000000  0.1075981525615504
  0.2500000000000000  0.0000000000000000  0.0100951565592311
  0.2500000000000000  0.0000000000000000  0.2051011485638696
  0.3475029960023193  0.1250000000000000  0.3575981525615504
  0.1524970039976807  0.1250000000000000  0.3575981525615504
  0.0000000000000000  0.0000000000000000  0.2600951565592311
  0.0000000000000000  0.0000000000000000  0.4551011485638696
  0.0975029960023193  0.1250000000000000  0.6075981525615504
  0.4024970039976807  0.1250000000000000  0.6075981525615504
  0.2500000000000000  0.0000000000000000  0.5100951565592311
  0.2500000000000000  0.0000000000000000  0.7051011485638696
  0.3475029960023193  0.1250000000000000  0.8575981525615504
  0.1524970039976807  0.1250000000000000  0.8575981525615504
  0.0000000000000000  0.0000000000000000  0.7600951565592311
  0.0000000000000000  0.0000000000000000  0.9551011485638696
  0.0975029960023193  0.3750000000000000  0.1075981525615504
  0.4024970039976807  0.3750000000000000  0.1075981525615504
  0.2500000000000000  0.2500000000000000  0.0100951565592311
  0.2500000000000000  0.2500000000000000  0.2051011485638696
  0.3475029960023193  0.3750000000000000  0.3575981525615504
  0.1524970039976807  0.3750000000000000  0.3575981525615504
  0.0000000000000000  0.2500000000000000  0.2600951565592311
  0.0000000000000000  0.2500000000000000  0.4551011485638696
  0.0975029960023193  0.3750000000000000  0.6075981525615504
  0.4024970039976807  0.3750000000000000  0.6075981525615504
  0.2500000000000000  0.2500000000000000  0.5100951565592311
  0.2500000000000000  0.2500000000000000  0.7051011485638696
  0.3475029960023193  0.3750000000000000  0.8575981525615504
  0.1524970039976807  0.3750000000000000  0.8575981525615504
  0.0000000000000000  0.2500000000000000  0.7600951565592311
  0.0000000000000000  0.2500000000000000  0.9551011485638696
  0.0975029960023193  0.6250000000000000  0.1075981525615504
  0.4024970039976807  0.6250000000000000  0.1075981525615504
  0.2500000000000000  0.5000000000000000  0.0100951565592311
  0.2500000000000000  0.5000000000000000  0.2051011485638696
  0.3475029960023193  0.6250000000000000  0.3575981525615504
  0.1524970039976807  0.6250000000000000  0.3575981525615504
  0.0000000000000000  0.5000000000000000  0.2600951565592311
  0.0000000000000000  0.5000000000000000  0.4551011485638696
  0.0975029960023193  0.6250000000000000  0.6075981525615504
  0.4024970039976807  0.6250000000000000  0.6075981525615504
  0.2500000000000000  0.5000000000000000  0.5100951565592311
  0.2500000000000000  0.5000000000000000  0.7051011485638696
  0.3475029960023193  0.6250000000000000  0.8575981525615504
  0.1524970039976807  0.6250000000000000  0.8575981525615504
  0.0000000000000000  0.5000000000000000  0.7600951565592311
  0.0000000000000000  0.5000000000000000  0.9551011485638696
  0.0975029960023193  0.8750000000000000  0.1075981525615504
  0.4024970039976807  0.8750000000000000  0.1075981525615504
  0.2500000000000000  0.7500000000000000  0.0100951565592311
  0.2500000000000000  0.7500000000000000  0.2051011485638696
  0.3475029960023193  0.8750000000000000  0.3575981525615504
  0.1524970039976807  0.8750000000000000  0.3575981525615504
  0.0000000000000000  0.7500000000000000  0.2600951565592311
  0.0000000000000000  0.7500000000000000  0.4551011485638696
  0.0975029960023193  0.8750000000000000  0.6075981525615504
  0.4024970039976807  0.8750000000000000  0.6075981525615504
  0.2500000000000000  0.7500000000000000  0.5100951565592311
  0.2500000000000000  0.7500000000000000  0.7051011485638696
  0.3475029960023193  0.8750000000000000  0.8575981525615504
  0.1524970039976807  0.8750000000000000  0.8575981525615504
  0.0000000000000000  0.7500000000000000  0.7600951565592311
  0.0000000000000000  0.7500000000000000  0.9551011485638696
  0.5975029960023193  0.1250000000000000  0.1075981525615504
  0.9024970039976807  0.1250000000000000  0.1075981525615504
  0.7500000000000000  0.0000000000000000  0.0100951565592311
  0.7500000000000000  0.0000000000000000  0.2051011485638696
  0.8475029960023193  0.1250000000000000  0.3575981525615504
  0.6524970039976807  0.1250000000000000  0.3575981525615504
  0.5000000000000000  0.0000000000000000  0.2600951565592311
  0.5000000000000000  0.0000000000000000  0.4551011485638696
  0.5975029960023193  0.1250000000000000  0.6075981525615504
  0.9024970039976807  0.1250000000000000  0.6075981525615504
  0.7500000000000000  0.0000000000000000  0.5100951565592311
  0.7500000000000000  0.0000000000000000  0.7051011485638696
  0.8475029960023193  0.1250000000000000  0.8575981525615504
  0.6524970039976807  0.1250000000000000  0.8575981525615504
  0.5000000000000000  0.0000000000000000  0.7600951565592311
  0.5000000000000000  0.0000000000000000  0.9551011485638696
  0.5975029960023193  0.3750000000000000  0.1075981525615504
  0.9024970039976807  0.3750000000000000  0.1075981525615504
  0.7500000000000000  0.2500000000000000  0.0100951565592311
  0.7500000000000000  0.2500000000000000  0.2051011485638696
  0.8475029960023193  0.3750000000000000  0.3575981525615504
  0.6524970039976807  0.3750000000000000  0.3575981525615504
  0.5000000000000000  0.2500000000000000  0.2600951565592311
  0.5000000000000000  0.2500000000000000  0.4551011485638696
  0.5975029960023193  0.3750000000000000  0.6075981525615504
  0.9024970039976807  0.3750000000000000  0.6075981525615504
  0.7500000000000000  0.2500000000000000  0.5100951565592311
  0.7500000000000000  0.2500000000000000  0.7051011485638696
  0.8475029960023193  0.3750000000000000  0.8575981525615504
  0.6524970039976807  0.3750000000000000  0.8575981525615504
  0.5000000000000000  0.2500000000000000  0.7600951565592311
  0.5000000000000000  0.2500000000000000  0.9551011485638696
  0.5975029960023193  0.6250000000000000  0.1075981525615504
  0.9024970039976807  0.6250000000000000  0.1075981525615504
  0.7500000000000000  0.5000000000000000  0.0100951565592311
  0.7500000000000000  0.5000000000000000  0.2051011485638696
  0.8475029960023193  0.6250000000000000  0.3575981525615504
  0.6524970039976807  0.6250000000000000  0.3575981525615504
  0.5000000000000000  0.5000000000000000  0.2600951565592311
  0.5975029960023193  0.6250000000000000  0.6075981525615504
  0.9024970039976807  0.6250000000000000  0.6075981525615504
  0.7500000000000000  0.5000000000000000  0.5100951565592311
  0.7500000000000000  0.5000000000000000  0.7051011485638696
  0.8475029960023193  0.6250000000000000  0.8575981525615504
  0.6524970039976807  0.6250000000000000  0.8575981525615504
  0.5000000000000000  0.5000000000000000  0.7600951565592311
  0.5000000000000000  0.5000000000000000  0.9551011485638696
  0.5975029960023193  0.8750000000000000  0.1075981525615504
  0.9024970039976807  0.8750000000000000  0.1075981525615504
  0.7500000000000000  0.7500000000000000  0.0100951565592311
  0.7500000000000000  0.7500000000000000  0.2051011485638696
  0.8475029960023193  0.8750000000000000  0.3575981525615504
  0.6524970039976807  0.8750000000000000  0.3575981525615504
  0.5000000000000000  0.7500000000000000  0.2600951565592311
  0.5000000000000000  0.7500000000000000  0.4551011485638696
  0.5975029960023193  0.8750000000000000  0.6075981525615504
  0.9024970039976807  0.8750000000000000  0.6075981525615504
  0.7500000000000000  0.7500000000000000  0.5100951565592311
  0.7500000000000000  0.7500000000000000  0.7051011485638696
  0.8475029960023193  0.8750000000000000  0.8575981525615504
  0.6524970039976807  0.8750000000000000  0.8575981525615504
  0.5000000000000000  0.7500000000000000  0.7600951565592311
  0.5000000000000000  0.7500000000000000  0.9551011485638696
 
  0.00000000E+00  0.00000000E+00  0.00000000E+00
  0.00000000E+00  0.00000000E+00  0.00000000E+00
  0.00000000E+00  0.00000000E+00  0.00000000E+00
  0.00000000E+00  0.00000000E+00  0.00000000E+00
  0.00000000E+00  0.00000000E+00  0.00000000E+00
  0.00000000E+00  0.00000000E+00  0.00000000E+00
  0.00000000E+00  0.00000000E+00  0.00000000E+00
  0.00000000E+00  0.00000000E+00  0.00000000E+00
  0.00000000E+00  0.00000000E+00  0.00000000E+00
  0.00000000E+00  0.00000000E+00  0.00000000E+00
  0.00000000E+00  0.00000000E+00  0.00000000E+00
  0.00000000E+00  0.00000000E+00  0.00000000E+00
  0.00000000E+00  0.00000000E+00  0.00000000E+00
  0.00000000E+00  0.00000000E+00  0.00000000E+00
  0.00000000E+00  0.00000000E+00  0.00000000E+00
  0.00000000E+00  0.00000000E+00  0.00000000E+00
  0.00000000E+00  0.00000000E+00  0.00000000E+00
  0.00000000E+00  0.00000000E+00  0.00000000E+00
  0.00000000E+00  0.00000000E+00  0.00000000E+00
  0.00000000E+00  0.00000000E+00  0.00000000E+00
  0.00000000E+00  0.00000000E+00  0.00000000E+00
  0.00000000E+00  0.00000000E+00  0.00000000E+00
  0.00000000E+00  0.00000000E+00  0.00000000E+00
  0.00000000E+00  0.00000000E+00  0.00000000E+00
  0.00000000E+00  0.00000000E+00  0.00000000E+00
  0.00000000E+00  0.00000000E+00  0.00000000E+00
  0.00000000E+00  0.00000000E+00  0.00000000E+00
  0.00000000E+00  0.00000000E+00  0.00000000E+00
  0.00000000E+00  0.00000000E+00  0.00000000E+00
  0.00000000E+00  0.00000000E+00  0.00000000E+00
  0.00000000E+00  0.00000000E+00  0.00000000E+00
  0.00000000E+00  0.00000000E+00  0.00000000E+00
  0.00000000E+00  0.00000000E+00  0.00000000E+00
  0.00000000E+00  0.00000000E+00  0.00000000E+00
  0.00000000E+00  0.00000000E+00  0.00000000E+00
  0.00000000E+00  0.00000000E+00  0.00000000E+00
  0.00000000E+00  0.00000000E+00  0.00000000E+00
  0.00000000E+00  0.00000000E+00  0.00000000E+00
  0.00000000E+00  0.00000000E+00  0.00000000E+00
  0.00000000E+00  0.00000000E+00  0.00000000E+00
  0.00000000E+00  0.00000000E+00  0.00000000E+00
  0.00000000E+00  0.00000000E+00  0.00000000E+00
  0.00000000E+00  0.00000000E+00  0.00000000E+00
  0.00000000E+00  0.00000000E+00  0.00000000E+00
  0.00000000E+00  0.00000000E+00  0.00000000E+00
  0.00000000E+00  0.00000000E+00  0.00000000E+00
  0.00000000E+00  0.00000000E+00  0.00000000E+00
  0.00000000E+00  0.00000000E+00  0.00000000E+00
  0.00000000E+00  0.00000000E+00  0.00000000E+00
  0.00000000E+00  0.00000000E+00  0.00000000E+00
  0.00000000E+00  0.00000000E+00  0.00000000E+00
  0.00000000E+00  0.00000000E+00  0.00000000E+00
  0.00000000E+00  0.00000000E+00  0.00000000E+00
  0.00000000E+00  0.00000000E+00  0.00000000E+00
  0.00000000E+00  0.00000000E+00  0.00000000E+00
  0.00000000E+00  0.00000000E+00  0.00000000E+00
  0.00000000E+00  0.00000000E+00  0.00000000E+00
  0.00000000E+00  0.00000000E+00  0.00000000E+00
  0.00000000E+00  0.00000000E+00  0.00000000E+00
  0.00000000E+00  0.00000000E+00  0.00000000E+00
  0.00000000E+00  0.00000000E+00  0.00000000E+00
  0.00000000E+00  0.00000000E+00  0.00000000E+00
  0.00000000E+00  0.00000000E+00  0.00000000E+00
  0.00000000E+00  0.00000000E+00  0.00000000E+00
  0.00000000E+00  0.00000000E+00  0.00000000E+00
  0.00000000E+00  0.00000000E+00  0.00000000E+00
  0.00000000E+00  0.00000000E+00  0.00000000E+00
  0.00000000E+00  0.00000000E+00  0.00000000E+00
  0.00000000E+00  0.00000000E+00  0.00000000E+00
  0.00000000E+00  0.00000000E+00  0.00000000E+00
  0.00000000E+00  0.00000000E+00  0.00000000E+00
  0.00000000E+00  0.00000000E+00  0.00000000E+00
  0.00000000E+00  0.00000000E+00  0.00000000E+00
  0.00000000E+00  0.00000000E+00  0.00000000E+00
  0.00000000E+00  0.00000000E+00  0.00000000E+00
  0.00000000E+00  0.00000000E+00  0.00000000E+00
  0.00000000E+00  0.00000000E+00  0.00000000E+00
  0.00000000E+00  0.00000000E+00  0.00000000E+00
  0.00000000E+00  0.00000000E+00  0.00000000E+00
  0.00000000E+00  0.00000000E+00  0.00000000E+00
  0.00000000E+00  0.00000000E+00  0.00000000E+00
  0.00000000E+00  0.00000000E+00  0.00000000E+00
  0.00000000E+00  0.00000000E+00  0.00000000E+00
  0.00000000E+00  0.00000000E+00  0.00000000E+00
  0.00000000E+00  0.00000000E+00  0.00000000E+00
  0.00000000E+00  0.00000000E+00  0.00000000E+00
  0.00000000E+00  0.00000000E+00  0.00000000E+00
  0.00000000E+00  0.00000000E+00  0.00000000E+00
  0.00000000E+00  0.00000000E+00  0.00000000E+00
  0.00000000E+00  0.00000000E+00  0.00000000E+00
  0.00000000E+00  0.00000000E+00  0.00000000E+00
  0.00000000E+00  0.00000000E+00  0.00000000E+00
  0.00000000E+00  0.00000000E+00  0.00000000E+00
  0.00000000E+00  0.00000000E+00  0.00000000E+00
  0.00000000E+00  0.00000000E+00  0.00000000E+00
  0.00000000E+00  0.00000000E+00  0.00000000E+00
  0.00000000E+00  0.00000000E+00  0.00000000E+00
  0.00000000E+00  0.00000000E+00  0.00000000E+00
  0.00000000E+00  0.00000000E+00  0.00000000E+00
  0.00000000E+00  0.00000000E+00  0.00000000E+00
  0.00000000E+00  0.00000000E+00  0.00000000E+00
  0.00000000E+00  0.00000000E+00  0.00000000E+00
  0.00000000E+00  0.00000000E+00  0.00000000E+00
  0.00000000E+00  0.00000000E+00  0.00000000E+00
  0.00000000E+00  0.00000000E+00  0.00000000E+00
  0.00000000E+00  0.00000000E+00  0.00000000E+00
  0.00000000E+00  0.00000000E+00  0.00000000E+00
  0.00000000E+00  0.00000000E+00  0.00000000E+00
  0.00000000E+00  0.00000000E+00  0.00000000E+00
  0.00000000E+00  0.00000000E+00  0.00000000E+00
  0.00000000E+00  0.00000000E+00  0.00000000E+00
  0.00000000E+00  0.00000000E+00  0.00000000E+00
  0.00000000E+00  0.00000000E+00  0.00000000E+00
  0.00000000E+00  0.00000000E+00  0.00000000E+00
  0.00000000E+00  0.00000000E+00  0.00000000E+00
  0.00000000E+00  0.00000000E+00  0.00000000E+00
  0.00000000E+00  0.00000000E+00  0.00000000E+00
  0.00000000E+00  0.00000000E+00  0.00000000E+00
  0.00000000E+00  0.00000000E+00  0.00000000E+00
  0.00000000E+00  0.00000000E+00  0.00000000E+00
  0.00000000E+00  0.00000000E+00  0.00000000E+00
  0.00000000E+00  0.00000000E+00  0.00000000E+00
  0.00000000E+00  0.00000000E+00  0.00000000E+00
  0.00000000E+00  0.00000000E+00  0.00000000E+00
  0.00000000E+00  0.00000000E+00  0.00000000E+00
  0.00000000E+00  0.00000000E+00  0.00000000E+00
  0.00000000E+00  0.00000000E+00  0.00000000E+00
  0.00000000E+00  0.00000000E+00  0.00000000E+00
  0.00000000E+00  0.00000000E+00  0.00000000E+00
  0.00000000E+00  0.00000000E+00  0.00000000E+00
  0.00000000E+00  0.00000000E+00  0.00000000E+00
  0.00000000E+00  0.00000000E+00  0.00000000E+00
  0.00000000E+00  0.00000000E+00  0.00000000E+00
  0.00000000E+00  0.00000000E+00  0.00000000E+00
  0.00000000E+00  0.00000000E+00  0.00000000E+00
  0.00000000E+00  0.00000000E+00  0.00000000E+00
  0.00000000E+00  0.00000000E+00  0.00000000E+00
  0.00000000E+00  0.00000000E+00  0.00000000E+00
  0.00000000E+00  0.00000000E+00  0.00000000E+00
  0.00000000E+00  0.00000000E+00  0.00000000E+00
  0.00000000E+00  0.00000000E+00  0.00000000E+00
  0.00000000E+00  0.00000000E+00  0.00000000E+00
  0.00000000E+00  0.00000000E+00  0.00000000E+00
  0.00000000E+00  0.00000000E+00  0.00000000E+00
  0.00000000E+00  0.00000000E+00  0.00000000E+00
  0.00000000E+00  0.00000000E+00  0.00000000E+00
  0.00000000E+00  0.00000000E+00  0.00000000E+00
  0.00000000E+00  0.00000000E+00  0.00000000E+00
  0.00000000E+00  0.00000000E+00  0.00000000E+00
  0.00000000E+00  0.00000000E+00  0.00000000E+00
  0.00000000E+00  0.00000000E+00  0.00000000E+00
  0.00000000E+00  0.00000000E+00  0.00000000E+00
  0.00000000E+00  0.00000000E+00  0.00000000E+00
  0.00000000E+00  0.00000000E+00  0.00000000E+00
  0.00000000E+00  0.00000000E+00  0.00000000E+00
  0.00000000E+00  0.00000000E+00  0.00000000E+00
  0.00000000E+00  0.00000000E+00  0.00000000E+00
  0.00000000E+00  0.00000000E+00  0.00000000E+00
  0.00000000E+00  0.00000000E+00  0.00000000E+00
  0.00000000E+00  0.00000000E+00  0.00000000E+00
  0.00000000E+00  0.00000000E+00  0.00000000E+00
  0.00000000E+00  0.00000000E+00  0.00000000E+00
  0.00000000E+00  0.00000000E+00  0.00000000E+00
  0.00000000E+00  0.00000000E+00  0.00000000E+00
  0.00000000E+00  0.00000000E+00  0.00000000E+00
  0.00000000E+00  0.00000000E+00  0.00000000E+00
  0.00000000E+00  0.00000000E+00  0.00000000E+00
  0.00000000E+00  0.00000000E+00  0.00000000E+00
  0.00000000E+00  0.00000000E+00  0.00000000E+00
  0.00000000E+00  0.00000000E+00  0.00000000E+00
  0.00000000E+00  0.00000000E+00  0.00000000E+00
  0.00000000E+00  0.00000000E+00  0.00000000E+00
  0.00000000E+00  0.00000000E+00  0.00000000E+00
  0.00000000E+00  0.00000000E+00  0.00000000E+00
  0.00000000E+00  0.00000000E+00  0.00000000E+00
  0.00000000E+00  0.00000000E+00  0.00000000E+00
  0.00000000E+00  0.00000000E+00  0.00000000E+00
  0.00000000E+00  0.00000000E+00  0.00000000E+00
  0.00000000E+00  0.00000000E+00  0.00000000E+00
  0.00000000E+00  0.00000000E+00  0.00000000E+00
  0.00000000E+00  0.00000000E+00  0.00000000E+00
  0.00000000E+00  0.00000000E+00  0.00000000E+00
  0.00000000E+00  0.00000000E+00  0.00000000E+00
  0.00000000E+00  0.00000000E+00  0.00000000E+00
  0.00000000E+00  0.00000000E+00  0.00000000E+00
  0.00000000E+00  0.00000000E+00  0.00000000E+00
  0.00000000E+00  0.00000000E+00  0.00000000E+00
  0.00000000E+00  0.00000000E+00  0.00000000E+00
  0.00000000E+00  0.00000000E+00  0.00000000E+00
  0.00000000E+00  0.00000000E+00  0.00000000E+00
  0.00000000E+00  0.00000000E+00  0.00000000E+00
