Ti  O                                   
   1.00000000000000     
    13.0160748915413169    0.0000000000000000    0.0000000000000000
     0.0000000000000000   11.8443707738385253    0.0000000000000000
     0.0000000000000000    0.0000000000000000   13.0160748915413151
   Ti   O 
    64   127
Direct
  0.2500000000000000  0.1250000000000000  0.1086513080292875
  0.0000000000000000  0.0000000000000000  0.1086513080292875
  0.0000000000000000  0.1250000000000000  0.3586513080292875
  0.2500000000000000  0.0000000000000000  0.3586513080292875
  0.2500000000000000  0.1250000000000000  0.6086513080292875
  0.0000000000000000  0.0000000000000000  0.6086513080292875
  0.0000000000000000  0.1250000000000000  0.8586513080292875
  0.2500000000000000  0.0000000000000000  0.8586513080292875
  0.2500000000000000  0.3750000000000000  0.1086513080292875
  0.0000000000000000  0.2500000000000000  0.1086513080292875
  0.0000000000000000  0.3750000000000000  0.3586513080292875
  0.2500000000000000  0.2500000000000000  0.3586513080292875
  0.2500000000000000  0.3750000000000000  0.6086513080292875
  0.0000000000000000  0.2500000000000000  0.6086513080292875
  0.0000000000000000  0.3750000000000000  0.8586513080292875
  0.2500000000000000  0.2500000000000000  0.8586513080292875
  0.2500000000000000  0.6250000000000000  0.1086513080292875
  0.0000000000000000  0.5000000000000000  0.1086513080292875
  0.0000000000000000  0.6250000000000000  0.3586513080292875
  0.2500000000000000  0.5000000000000000  0.3586513080292875
  0.2500000000000000  0.6250000000000000  0.6086513080292875
  0.0000000000000000  0.5000000000000000  0.6086513080292875
  0.0000000000000000  0.6250000000000000  0.8586513080292875
  0.2500000000000000  0.5000000000000000  0.8586513080292875
  0.2500000000000000  0.8750000000000000  0.1086513080292875
  0.0000000000000000  0.7500000000000000  0.1086513080292875
  0.0000000000000000  0.8750000000000000  0.3586513080292875
  0.2500000000000000  0.7500000000000000  0.3586513080292875
  0.2500000000000000  0.8750000000000000  0.6086513080292875
  0.0000000000000000  0.7500000000000000  0.6086513080292875
  0.0000000000000000  0.8750000000000000  0.8586513080292875
  0.2500000000000000  0.7500000000000000  0.8586513080292875
  0.7500000000000000  0.1250000000000000  0.1086513080292875
  0.5000000000000000  0.0000000000000000  0.1086513080292875
  0.5000000000000000  0.1250000000000000  0.3586513080292875
  0.7500000000000000  0.0000000000000000  0.3586513080292875
  0.7500000000000000  0.1250000000000000  0.6086513080292875
  0.5000000000000000  0.0000000000000000  0.6086513080292875
  0.5000000000000000  0.1250000000000000  0.8586513080292875
  0.7500000000000000  0.0000000000000000  0.8586513080292875
  0.7500000000000000  0.3750000000000000  0.1086513080292875
  0.5000000000000000  0.2500000000000000  0.1086513080292875
  0.5000000000000000  0.3750000000000000  0.3586513080292875
  0.7500000000000000  0.2500000000000000  0.3586513080292875
  0.7500000000000000  0.3750000000000000  0.6086513080292875
  0.5000000000000000  0.2500000000000000  0.6086513080292875
  0.5000000000000000  0.3750000000000000  0.8586513080292875
  0.7500000000000000  0.2500000000000000  0.8586513080292875
  0.7500000000000000  0.6250000000000000  0.1086513080292875
  0.5000000000000000  0.5000000000000000  0.1086513080292875
  0.5000000000000000  0.6250000000000000  0.3586513080292875
  0.7500000000000000  0.5000000000000000  0.3586513080292875
  0.7500000000000000  0.6250000000000000  0.6086513080292875
  0.5000000000000000  0.5000000000000000  0.6086513080292875
  0.5000000000000000  0.6250000000000000  0.8586513080292875
  0.7500000000000000  0.5000000000000000  0.8586513080292875
  0.7500000000000000  0.8750000000000000  0.1086513080292875
  0.5000000000000000  0.7500000000000000  0.1086513080292875
  0.5000000000000000  0.8750000000000000  0.3586513080292875
  0.7500000000000000  0.7500000000000000  0.3586513080292875
  0.7500000000000000  0.8750000000000000  0.6086513080292875
  0.5000000000000000  0.7500000000000000  0.6086513080292875
  0.5000000000000000  0.8750000000000000  0.8586513080292875
  0.7500000000000000  0.7500000000000000  0.8586513080292875
  0.0977323101498797  0.1250000000000000  0.1086513080292875
  0.4022676898501203  0.1250000000000000  0.1086513080292875
  0.2500000000000000  0.0000000000000000  0.0109189978794078
  0.2500000000000000  0.0000000000000000  0.2063836181791672
  0.3477323101498797  0.1250000000000000  0.3586513080292875
  0.1522676898501203  0.1250000000000000  0.3586513080292875
  0.0000000000000000  0.0000000000000000  0.2609189978794078
  0.0000000000000000  0.0000000000000000  0.4563836181791672
  0.0977323101498797  0.1250000000000000  0.6086513080292875
  0.4022676898501203  0.1250000000000000  0.6086513080292875
  0.2500000000000000  0.0000000000000000  0.5109189978794078
  0.2500000000000000  0.0000000000000000  0.7063836181791672
  0.3477323101498797  0.1250000000000000  0.8586513080292875
  0.1522676898501203  0.1250000000000000  0.8586513080292875
  0.0000000000000000  0.0000000000000000  0.7609189978794078
  0.0000000000000000  0.0000000000000000  0.9563836181791672
  0.0977323101498797  0.3750000000000000  0.1086513080292875
  0.4022676898501203  0.3750000000000000  0.1086513080292875
  0.2500000000000000  0.2500000000000000  0.0109189978794078
  0.2500000000000000  0.2500000000000000  0.2063836181791672
  0.3477323101498797  0.3750000000000000  0.3586513080292875
  0.1522676898501203  0.3750000000000000  0.3586513080292875
  0.0000000000000000  0.2500000000000000  0.2609189978794078
  0.0000000000000000  0.2500000000000000  0.4563836181791672
  0.0977323101498797  0.3750000000000000  0.6086513080292875
  0.4022676898501203  0.3750000000000000  0.6086513080292875
  0.2500000000000000  0.2500000000000000  0.5109189978794078
  0.2500000000000000  0.2500000000000000  0.7063836181791672
  0.3477323101498797  0.3750000000000000  0.8586513080292875
  0.1522676898501203  0.3750000000000000  0.8586513080292875
  0.0000000000000000  0.2500000000000000  0.7609189978794078
  0.0000000000000000  0.2500000000000000  0.9563836181791672
  0.0977323101498797  0.6250000000000000  0.1086513080292875
  0.4022676898501203  0.6250000000000000  0.1086513080292875
  0.2500000000000000  0.5000000000000000  0.0109189978794078
  0.2500000000000000  0.5000000000000000  0.2063836181791672
  0.3477323101498797  0.6250000000000000  0.3586513080292875
  0.1522676898501203  0.6250000000000000  0.3586513080292875
  0.0000000000000000  0.5000000000000000  0.2609189978794078
  0.0000000000000000  0.5000000000000000  0.4563836181791672
  0.0977323101498797  0.6250000000000000  0.6086513080292875
  0.4022676898501203  0.6250000000000000  0.6086513080292875
  0.2500000000000000  0.5000000000000000  0.5109189978794078
  0.2500000000000000  0.5000000000000000  0.7063836181791672
  0.3477323101498797  0.6250000000000000  0.8586513080292875
  0.1522676898501203  0.6250000000000000  0.8586513080292875
  0.0000000000000000  0.5000000000000000  0.7609189978794078
  0.0000000000000000  0.5000000000000000  0.9563836181791672
  0.0977323101498797  0.8750000000000000  0.1086513080292875
  0.4022676898501203  0.8750000000000000  0.1086513080292875
  0.2500000000000000  0.7500000000000000  0.0109189978794078
  0.2500000000000000  0.7500000000000000  0.2063836181791672
  0.3477323101498797  0.8750000000000000  0.3586513080292875
  0.1522676898501203  0.8750000000000000  0.3586513080292875
  0.0000000000000000  0.7500000000000000  0.2609189978794078
  0.0000000000000000  0.7500000000000000  0.4563836181791672
  0.0977323101498797  0.8750000000000000  0.6086513080292875
  0.4022676898501203  0.8750000000000000  0.6086513080292875
  0.2500000000000000  0.7500000000000000  0.5109189978794078
  0.2500000000000000  0.7500000000000000  0.7063836181791672
  0.3477323101498797  0.8750000000000000  0.8586513080292875
  0.1522676898501203  0.8750000000000000  0.8586513080292875
  0.0000000000000000  0.7500000000000000  0.7609189978794078
  0.0000000000000000  0.7500000000000000  0.9563836181791672
  0.5977323101498797  0.1250000000000000  0.1086513080292875
  0.9022676898501203  0.1250000000000000  0.1086513080292875
  0.7500000000000000  0.0000000000000000  0.0109189978794078
  0.7500000000000000  0.0000000000000000  0.2063836181791672
  0.8477323101498797  0.1250000000000000  0.3586513080292875
  0.6522676898501203  0.1250000000000000  0.3586513080292875
  0.5000000000000000  0.0000000000000000  0.2609189978794078
  0.5000000000000000  0.0000000000000000  0.4563836181791672
  0.5977323101498797  0.1250000000000000  0.6086513080292875
  0.9022676898501203  0.1250000000000000  0.6086513080292875
  0.7500000000000000  0.0000000000000000  0.5109189978794078
  0.7500000000000000  0.0000000000000000  0.7063836181791672
  0.8477323101498797  0.1250000000000000  0.8586513080292875
  0.6522676898501203  0.1250000000000000  0.8586513080292875
  0.5000000000000000  0.0000000000000000  0.7609189978794078
  0.5000000000000000  0.0000000000000000  0.9563836181791672
  0.5977323101498797  0.3750000000000000  0.1086513080292875
  0.9022676898501203  0.3750000000000000  0.1086513080292875
  0.7500000000000000  0.2500000000000000  0.0109189978794078
  0.7500000000000000  0.2500000000000000  0.2063836181791672
  0.8477323101498797  0.3750000000000000  0.3586513080292875
  0.6522676898501203  0.3750000000000000  0.3586513080292875
  0.5000000000000000  0.2500000000000000  0.2609189978794078
  0.5000000000000000  0.2500000000000000  0.4563836181791672
  0.5977323101498797  0.3750000000000000  0.6086513080292875
  0.9022676898501203  0.3750000000000000  0.6086513080292875
  0.7500000000000000  0.2500000000000000  0.5109189978794078
  0.7500000000000000  0.2500000000000000  0.7063836181791672
  0.8477323101498797  0.3750000000000000  0.8586513080292875
  0.6522676898501203  0.3750000000000000  0.8586513080292875
  0.5000000000000000  0.2500000000000000  0.7609189978794078
  0.5000000000000000  0.2500000000000000  0.9563836181791672
  0.5977323101498797  0.6250000000000000  0.1086513080292875
  0.9022676898501203  0.6250000000000000  0.1086513080292875
  0.7500000000000000  0.5000000000000000  0.0109189978794078
  0.7500000000000000  0.5000000000000000  0.2063836181791672
  0.8477323101498797  0.6250000000000000  0.3586513080292875
  0.6522676898501203  0.6250000000000000  0.3586513080292875
  0.5000000000000000  0.5000000000000000  0.2609189978794078
  0.5977323101498797  0.6250000000000000  0.6086513080292875
  0.9022676898501203  0.6250000000000000  0.6086513080292875
  0.7500000000000000  0.5000000000000000  0.5109189978794078
  0.7500000000000000  0.5000000000000000  0.7063836181791672
  0.8477323101498797  0.6250000000000000  0.8586513080292875
  0.6522676898501203  0.6250000000000000  0.8586513080292875
  0.5000000000000000  0.5000000000000000  0.7609189978794078
  0.5000000000000000  0.5000000000000000  0.9563836181791672
  0.5977323101498797  0.8750000000000000  0.1086513080292875
  0.9022676898501203  0.8750000000000000  0.1086513080292875
  0.7500000000000000  0.7500000000000000  0.0109189978794078
  0.7500000000000000  0.7500000000000000  0.2063836181791672
  0.8477323101498797  0.8750000000000000  0.3586513080292875
  0.6522676898501203  0.8750000000000000  0.3586513080292875
  0.5000000000000000  0.7500000000000000  0.2609189978794078
  0.5000000000000000  0.7500000000000000  0.4563836181791672
  0.5977323101498797  0.8750000000000000  0.6086513080292875
  0.9022676898501203  0.8750000000000000  0.6086513080292875
  0.7500000000000000  0.7500000000000000  0.5109189978794078
  0.7500000000000000  0.7500000000000000  0.7063836181791672
  0.8477323101498797  0.8750000000000000  0.8586513080292875
  0.6522676898501203  0.8750000000000000  0.8586513080292875
  0.5000000000000000  0.7500000000000000  0.7609189978794078
  0.5000000000000000  0.7500000000000000  0.9563836181791672
 
  0.00000000E+00  0.00000000E+00  0.00000000E+00
  0.00000000E+00  0.00000000E+00  0.00000000E+00
  0.00000000E+00  0.00000000E+00  0.00000000E+00
  0.00000000E+00  0.00000000E+00  0.00000000E+00
  0.00000000E+00  0.00000000E+00  0.00000000E+00
  0.00000000E+00  0.00000000E+00  0.00000000E+00
  0.00000000E+00  0.00000000E+00  0.00000000E+00
  0.00000000E+00  0.00000000E+00  0.00000000E+00
  0.00000000E+00  0.00000000E+00  0.00000000E+00
  0.00000000E+00  0.00000000E+00  0.00000000E+00
  0.00000000E+00  0.00000000E+00  0.00000000E+00
  0.00000000E+00  0.00000000E+00  0.00000000E+00
  0.00000000E+00  0.00000000E+00  0.00000000E+00
  0.00000000E+00  0.00000000E+00  0.00000000E+00
  0.00000000E+00  0.00000000E+00  0.00000000E+00
  0.00000000E+00  0.00000000E+00  0.00000000E+00
  0.00000000E+00  0.00000000E+00  0.00000000E+00
  0.00000000E+00  0.00000000E+00  0.00000000E+00
  0.00000000E+00  0.00000000E+00  0.00000000E+00
  0.00000000E+00  0.00000000E+00  0.00000000E+00
  0.00000000E+00  0.00000000E+00  0.00000000E+00
  0.00000000E+00  0.00000000E+00  0.00000000E+00
  0.00000000E+00  0.00000000E+00  0.00000000E+00
  0.00000000E+00  0.00000000E+00  0.00000000E+00
  0.00000000E+00  0.00000000E+00  0.00000000E+00
  0.00000000E+00  0.00000000E+00  0.00000000E+00
  0.00000000E+00  0.00000000E+00  0.00000000E+00
  0.00000000E+00  0.00000000E+00  0.00000000E+00
  0.00000000E+00  0.00000000E+00  0.00000000E+00
  0.00000000E+00  0.00000000E+00  0.00000000E+00
  0.00000000E+00  0.00000000E+00  0.00000000E+00
  0.00000000E+00  0.00000000E+00  0.00000000E+00
  0.00000000E+00  0.00000000E+00  0.00000000E+00
  0.00000000E+00  0.00000000E+00  0.00000000E+00
  0.00000000E+00  0.00000000E+00  0.00000000E+00
  0.00000000E+00  0.00000000E+00  0.00000000E+00
  0.00000000E+00  0.00000000E+00  0.00000000E+00
  0.00000000E+00  0.00000000E+00  0.00000000E+00
  0.00000000E+00  0.00000000E+00  0.00000000E+00
  0.00000000E+00  0.00000000E+00  0.00000000E+00
  0.00000000E+00  0.00000000E+00  0.00000000E+00
  0.00000000E+00  0.00000000E+00  0.00000000E+00
  0.00000000E+00  0.00000000E+00  0.00000000E+00
  0.00000000E+00  0.00000000E+00  0.00000000E+00
  0.00000000E+00  0.00000000E+00  0.00000000E+00
  0.00000000E+00  0.00000000E+00  0.00000000E+00
  0.00000000E+00  0.00000000E+00  0.00000000E+00
  0.00000000E+00  0.00000000E+00  0.00000000E+00
  0.00000000E+00  0.00000000E+00  0.00000000E+00
  0.00000000E+00  0.00000000E+00  0.00000000E+00
  0.00000000E+00  0.00000000E+00  0.00000000E+00
  0.00000000E+00  0.00000000E+00  0.00000000E+00
  0.00000000E+00  0.00000000E+00  0.00000000E+00
  0.00000000E+00  0.00000000E+00  0.00000000E+00
  0.00000000E+00  0.00000000E+00  0.00000000E+00
  0.00000000E+00  0.00000000E+00  0.00000000E+00
  0.00000000E+00  0.00000000E+00  0.00000000E+00
  0.00000000E+00  0.00000000E+00  0.00000000E+00
  0.00000000E+00  0.00000000E+00  0.00000000E+00
  0.00000000E+00  0.00000000E+00  0.00000000E+00
  0.00000000E+00  0.00000000E+00  0.00000000E+00
  0.00000000E+00  0.00000000E+00  0.00000000E+00
  0.00000000E+00  0.00000000E+00  0.00000000E+00
  0.00000000E+00  0.00000000E+00  0.00000000E+00
  0.00000000E+00  0.00000000E+00  0.00000000E+00
  0.00000000E+00  0.00000000E+00  0.00000000E+00
  0.00000000E+00  0.00000000E+00  0.00000000E+00
  0.00000000E+00  0.00000000E+00  0.00000000E+00
  0.00000000E+00  0.00000000E+00  0.00000000E+00
  0.00000000E+00  0.00000000E+00  0.00000000E+00
  0.00000000E+00  0.00000000E+00  0.00000000E+00
  0.00000000E+00  0.00000000E+00  0.00000000E+00
  0.00000000E+00  0.00000000E+00  0.00000000E+00
  0.00000000E+00  0.00000000E+00  0.00000000E+00
  0.00000000E+00  0.00000000E+00  0.00000000E+00
  0.00000000E+00  0.00000000E+00  0.00000000E+00
  0.00000000E+00  0.00000000E+00  0.00000000E+00
  0.00000000E+00  0.00000000E+00  0.00000000E+00
  0.00000000E+00  0.00000000E+00  0.00000000E+00
  0.00000000E+00  0.00000000E+00  0.00000000E+00
  0.00000000E+00  0.00000000E+00  0.00000000E+00
  0.00000000E+00  0.00000000E+00  0.00000000E+00
  0.00000000E+00  0.00000000E+00  0.00000000E+00
  0.00000000E+00  0.00000000E+00  0.00000000E+00
  0.00000000E+00  0.00000000E+00  0.00000000E+00
  0.00000000E+00  0.00000000E+00  0.00000000E+00
  0.00000000E+00  0.00000000E+00  0.00000000E+00
  0.00000000E+00  0.00000000E+00  0.00000000E+00
  0.00000000E+00  0.00000000E+00  0.00000000E+00
  0.00000000E+00  0.00000000E+00  0.00000000E+00
  0.00000000E+00  0.00000000E+00  0.00000000E+00
  0.00000000E+00  0.00000000E+00  0.00000000E+00
  0.00000000E+00  0.00000000E+00  0.00000000E+00
  0.00000000E+00  0.00000000E+00  0.00000000E+00
  0.00000000E+00  0.00000000E+00  0.00000000E+00
  0.00000000E+00  0.00000000E+00  0.00000000E+00
  0.00000000E+00  0.00000000E+00  0.00000000E+00
  0.00000000E+00  0.00000000E+00  0.00000000E+00
  0.00000000E+00  0.00000000E+00  0.00000000E+00
  0.00000000E+00  0.00000000E+00  0.00000000E+00
  0.00000000E+00  0.00000000E+00  0.00000000E+00
  0.00000000E+00  0.00000000E+00  0.00000000E+00
  0.00000000E+00  0.00000000E+00  0.00000000E+00
  0.00000000E+00  0.00000000E+00  0.00000000E+00
  0.00000000E+00  0.00000000E+00  0.00000000E+00
  0.00000000E+00  0.00000000E+00  0.00000000E+00
  0.00000000E+00  0.00000000E+00  0.00000000E+00
  0.00000000E+00  0.00000000E+00  0.00000000E+00
  0.00000000E+00  0.00000000E+00  0.00000000E+00
  0.00000000E+00  0.00000000E+00  0.00000000E+00
  0.00000000E+00  0.00000000E+00  0.00000000E+00
  0.00000000E+00  0.00000000E+00  0.00000000E+00
  0.00000000E+00  0.00000000E+00  0.00000000E+00
  0.00000000E+00  0.00000000E+00  0.00000000E+00
  0.00000000E+00  0.00000000E+00  0.00000000E+00
  0.00000000E+00  0.00000000E+00  0.00000000E+00
  0.00000000E+00  0.00000000E+00  0.00000000E+00
  0.00000000E+00  0.00000000E+00  0.00000000E+00
  0.00000000E+00  0.00000000E+00  0.00000000E+00
  0.00000000E+00  0.00000000E+00  0.00000000E+00
  0.00000000E+00  0.00000000E+00  0.00000000E+00
  0.00000000E+00  0.00000000E+00  0.00000000E+00
  0.00000000E+00  0.00000000E+00  0.00000000E+00
  0.00000000E+00  0.00000000E+00  0.00000000E+00
  0.00000000E+00  0.00000000E+00  0.00000000E+00
  0.00000000E+00  0.00000000E+00  0.00000000E+00
  0.00000000E+00  0.00000000E+00  0.00000000E+00
  0.00000000E+00  0.00000000E+00  0.00000000E+00
  0.00000000E+00  0.00000000E+00  0.00000000E+00
  0.00000000E+00  0.00000000E+00  0.00000000E+00
  0.00000000E+00  0.00000000E+00  0.00000000E+00
  0.00000000E+00  0.00000000E+00  0.00000000E+00
  0.00000000E+00  0.00000000E+00  0.00000000E+00
  0.00000000E+00  0.00000000E+00  0.00000000E+00
  0.00000000E+00  0.00000000E+00  0.00000000E+00
  0.00000000E+00  0.00000000E+00  0.00000000E+00
  0.00000000E+00  0.00000000E+00  0.00000000E+00
  0.00000000E+00  0.00000000E+00  0.00000000E+00
  0.00000000E+00  0.00000000E+00  0.00000000E+00
  0.00000000E+00  0.00000000E+00  0.00000000E+00
  0.00000000E+00  0.00000000E+00  0.00000000E+00
  0.00000000E+00  0.00000000E+00  0.00000000E+00
  0.00000000E+00  0.00000000E+00  0.00000000E+00
  0.00000000E+00  0.00000000E+00  0.00000000E+00
  0.00000000E+00  0.00000000E+00  0.00000000E+00
  0.00000000E+00  0.00000000E+00  0.00000000E+00
  0.00000000E+00  0.00000000E+00  0.00000000E+00
  0.00000000E+00  0.00000000E+00  0.00000000E+00
  0.00000000E+00  0.00000000E+00  0.00000000E+00
  0.00000000E+00  0.00000000E+00  0.00000000E+00
  0.00000000E+00  0.00000000E+00  0.00000000E+00
  0.00000000E+00  0.00000000E+00  0.00000000E+00
  0.00000000E+00  0.00000000E+00  0.00000000E+00
  0.00000000E+00  0.00000000E+00  0.00000000E+00
  0.00000000E+00  0.00000000E+00  0.00000000E+00
  0.00000000E+00  0.00000000E+00  0.00000000E+00
  0.00000000E+00  0.00000000E+00  0.00000000E+00
  0.00000000E+00  0.00000000E+00  0.00000000E+00
  0.00000000E+00  0.00000000E+00  0.00000000E+00
  0.00000000E+00  0.00000000E+00  0.00000000E+00
  0.00000000E+00  0.00000000E+00  0.00000000E+00
  0.00000000E+00  0.00000000E+00  0.00000000E+00
  0.00000000E+00  0.00000000E+00  0.00000000E+00
  0.00000000E+00  0.00000000E+00  0.00000000E+00
  0.00000000E+00  0.00000000E+00  0.00000000E+00
  0.00000000E+00  0.00000000E+00  0.00000000E+00
  0.00000000E+00  0.00000000E+00  0.00000000E+00
  0.00000000E+00  0.00000000E+00  0.00000000E+00
  0.00000000E+00  0.00000000E+00  0.00000000E+00
  0.00000000E+00  0.00000000E+00  0.00000000E+00
  0.00000000E+00  0.00000000E+00  0.00000000E+00
  0.00000000E+00  0.00000000E+00  0.00000000E+00
  0.00000000E+00  0.00000000E+00  0.00000000E+00
  0.00000000E+00  0.00000000E+00  0.00000000E+00
  0.00000000E+00  0.00000000E+00  0.00000000E+00
  0.00000000E+00  0.00000000E+00  0.00000000E+00
  0.00000000E+00  0.00000000E+00  0.00000000E+00
  0.00000000E+00  0.00000000E+00  0.00000000E+00
  0.00000000E+00  0.00000000E+00  0.00000000E+00
  0.00000000E+00  0.00000000E+00  0.00000000E+00
  0.00000000E+00  0.00000000E+00  0.00000000E+00
  0.00000000E+00  0.00000000E+00  0.00000000E+00
  0.00000000E+00  0.00000000E+00  0.00000000E+00
  0.00000000E+00  0.00000000E+00  0.00000000E+00
  0.00000000E+00  0.00000000E+00  0.00000000E+00
  0.00000000E+00  0.00000000E+00  0.00000000E+00
  0.00000000E+00  0.00000000E+00  0.00000000E+00
  0.00000000E+00  0.00000000E+00  0.00000000E+00
  0.00000000E+00  0.00000000E+00  0.00000000E+00
  0.00000000E+00  0.00000000E+00  0.00000000E+00
  0.00000000E+00  0.00000000E+00  0.00000000E+00
