SYSTEM=TiO2-rutile
ISMEAR=0
SIGMA=0.05
EDIFF=1E-5
ALGO=Fast
ISYM=0

GGA=PE

IBRION = -1
NSW = 0
EDIFFG=-0.01

ENCUT=500
PREC=Normal
LASPH=.TRUE.
LREAL=Auto
ISPIN=1
NELM=300
NCORE=20

LWAVE=.FALSE.
LCHARG=.FALSE.

LORBIT=11
