Mg  O 
 1.0000000000000000
    12.6193707943346283    0.0000000000000000    0.0000000000000000
     0.0000000000000000   12.6193707943346283    0.0000000000000000
     0.0000000000000000    0.0000000000000000   23.4129138628897522
  Mg   O
  90  89
Selective dynamics
Direct
  0.1666666666666667  0.0000000000000000  0.3203360352291612   F   F   F
  0.0000000000000000  0.1666666666666667  0.3203360352291612   F   F   F
  0.1666666666666667  0.1666666666666667  0.4101680176145805   F   F   F
  0.0000000000000000  0.0000000000000000  0.4101680176145805   F   F   F
  0.1666666666666667  0.0000000000000000  0.5000000000000000   F   F   F
  0.0000000000000000  0.1666666666666667  0.5000000000000000   F   F   F
  0.1666665230981392  0.1666666161738558  0.5901973079798789   T   T   T
  0.3333331961120031  0.9999999213613073  0.5901970867191870   T   T   T
  0.1666660250837270  0.3333329912895837  0.6792953148695685   T   T   T
  0.9999996461145172  0.1666662513236171  0.6792943819974102   T   T   T
  0.1666666666666667  0.3333333333333333  0.3203360352291612   F   F   F
  0.0000000000000000  0.5000000000000000  0.3203360352291612   F   F   F
  0.1666666666666667  0.5000000000000000  0.4101680176145805   F   F   F
  0.0000000000000000  0.3333333333333333  0.4101680176145805   F   F   F
  0.1666666666666667  0.3333333333333333  0.5000000000000000   F   F   F
  0.0000000000000000  0.5000000000000000  0.5000000000000000   F   F   F
  0.1666665230981392  0.4999999495071891  0.5901973079798789   T   T   T
  0.3333331961120031  0.3333332546946407  0.5901970867191870   T   T   T
  0.1666660250837270  0.6666663246229170  0.6792953148695685   T   T   T
  0.9999996461145172  0.4999995846569504  0.6792943819974102   T   T   T
  0.1666666666666667  0.6666666666666666  0.3203360352291612   F   F   F
  0.0000000000000000  0.8333333333333334  0.3203360352291612   F   F   F
  0.1666666666666667  0.8333333333333334  0.4101680176145805   F   F   F
  0.0000000000000000  0.6666666666666666  0.4101680176145805   F   F   F
  0.1666666666666667  0.6666666666666666  0.5000000000000000   F   F   F
  0.0000000000000000  0.8333333333333334  0.5000000000000000   F   F   F
  0.1666665230981392  0.8333332828405224  0.5901973079798789   T   T   T
  0.3333331961120031  0.6666665880279740  0.5901970867191870   T   T   T
  0.1666660250837270  0.9999996579562503  0.6792953148695685   T   T   T
  0.9999996461145172  0.8333329179902838  0.6792943819974102   T   T   T
  0.5000000000000000  0.0000000000000000  0.3203360352291612   F   F   F
  0.3333333333333333  0.1666666666666667  0.3203360352291612   F   F   F
  0.5000000000000000  0.1666666666666667  0.4101680176145805   F   F   F
  0.3333333333333333  0.0000000000000000  0.4101680176145805   F   F   F
  0.5000000000000000  0.0000000000000000  0.5000000000000000   F   F   F
  0.3333333333333333  0.1666666666666667  0.5000000000000000   F   F   F
  0.4999998564314725  0.1666666161738558  0.5901973079798789   T   T   T
  0.6666665294453364  0.9999999213613073  0.5901970867191870   T   T   T
  0.4999993584170603  0.3333329912895837  0.6792953148695685   T   T   T
  0.3333329794478505  0.1666662513236171  0.6792943819974102   T   T   T
  0.5000000000000000  0.3333333333333333  0.3203360352291612   F   F   F
  0.3333333333333333  0.5000000000000000  0.3203360352291612   F   F   F
  0.5000000000000000  0.5000000000000000  0.4101680176145805   F   F   F
  0.3333333333333333  0.3333333333333333  0.4101680176145805   F   F   F
  0.5000000000000000  0.3333333333333333  0.5000000000000000   F   F   F
  0.3333333333333333  0.5000000000000000  0.5000000000000000   F   F   F
  0.4999998564314725  0.4999999495071891  0.5901973079798789   T   T   T
  0.6666665294453364  0.3333332546946407  0.5901970867191870   T   T   T
  0.4999993584170603  0.6666663246229170  0.6792953148695685   T   T   T
  0.3333329794478505  0.4999995846569504  0.6792943819974102   T   T   T
  0.5000000000000000  0.6666666666666666  0.3203360352291612   F   F   F
  0.3333333333333333  0.8333333333333334  0.3203360352291612   F   F   F
  0.5000000000000000  0.8333333333333334  0.4101680176145805   F   F   F
  0.3333333333333333  0.6666666666666666  0.4101680176145805   F   F   F
  0.5000000000000000  0.6666666666666666  0.5000000000000000   F   F   F
  0.3333333333333333  0.8333333333333334  0.5000000000000000   F   F   F
  0.4999998564314725  0.8333332828405224  0.5901973079798789   T   T   T
  0.6666665294453364  0.6666665880279740  0.5901970867191870   T   T   T
  0.4999993584170603  0.9999996579562503  0.6792953148695685   T   T   T
  0.3333329794478505  0.8333329179902838  0.6792943819974102   T   T   T
  0.8333333333333334  0.0000000000000000  0.3203360352291612   F   F   F
  0.6666666666666666  0.1666666666666667  0.3203360352291612   F   F   F
  0.8333333333333334  0.1666666666666667  0.4101680176145805   F   F   F
  0.6666666666666666  0.0000000000000000  0.4101680176145805   F   F   F
  0.8333333333333334  0.0000000000000000  0.5000000000000000   F   F   F
  0.6666666666666666  0.1666666666666667  0.5000000000000000   F   F   F
  0.8333331897648059  0.1666666161738558  0.5901973079798789   T   T   T
  0.9999998627786698  0.9999999213613073  0.5901970867191870   T   T   T
  0.8333326917503936  0.3333329912895837  0.6792953148695685   T   T   T
  0.6666663127811838  0.1666662513236171  0.6792943819974102   T   T   T
  0.8333333333333334  0.3333333333333333  0.3203360352291612   F   F   F
  0.6666666666666666  0.5000000000000000  0.3203360352291612   F   F   F
  0.8333333333333334  0.5000000000000000  0.4101680176145805   F   F   F
  0.6666666666666666  0.3333333333333333  0.4101680176145805   F   F   F
  0.8333333333333334  0.3333333333333333  0.5000000000000000   F   F   F
  0.6666666666666666  0.5000000000000000  0.5000000000000000   F   F   F
  0.8333331897648059  0.4999999495071891  0.5901973079798789   T   T   T
  0.9999998627786698  0.3333332546946407  0.5901970867191870   T   T   T
  0.8333326917503936  0.6666663246229170  0.6792953148695685   T   T   T
  0.6666663127811838  0.4999995846569504  0.6792943819974102   T   T   T
  0.8333333333333334  0.6666666666666666  0.3203360352291612   F   F   F
  0.6666666666666666  0.8333333333333334  0.3203360352291612   F   F   F
  0.8333333333333334  0.8333333333333334  0.4101680176145805   F   F   F
  0.6666666666666666  0.6666666666666666  0.4101680176145805   F   F   F
  0.8333333333333334  0.6666666666666666  0.5000000000000000   F   F   F
  0.6666666666666666  0.8333333333333334  0.5000000000000000   F   F   F
  0.8333331897648059  0.8333332828405224  0.5901973079798789   T   T   T
  0.9999998627786698  0.6666665880279740  0.5901970867191870   T   T   T
  0.8333326917503936  0.9999996579562503  0.6792953148695685   T   T   T
  0.6666663127811838  0.8333329179902838  0.6792943819974102   T   T   T
  0.1666666666666667  0.0000000000000000  0.4101680176145805   F   F   F
  0.0000000000000000  0.1666666666666667  0.4101680176145805   F   F   F
  0.1666666666666667  0.1666666666666667  0.3203360352291612   F   F   F
  0.0000000000000000  0.0000000000000000  0.3203360352291612   F   F   F
  0.1666661636943677  0.9999995357471886  0.5899858841044499   T   T   T
  0.9999996326799077  0.1666659665596450  0.5899853482225993   T   T   T
  0.1666666666666667  0.1666666666666667  0.5000000000000000   F   F   F
  0.0000000000000000  0.0000000000000000  0.5000000000000000   F   F   F
  0.1666660865133240  0.1666659557386744  0.6810581399124838   T   T   T
  0.9999994139964113  0.9999995611016448  0.6810580610364246   T   T   T
  0.1666666666666667  0.3333333333333333  0.4101680176145805   F   F   F
  0.0000000000000000  0.5000000000000000  0.4101680176145805   F   F   F
  0.1666666666666667  0.5000000000000000  0.3203360352291612   F   F   F
  0.0000000000000000  0.3333333333333333  0.3203360352291612   F   F   F
  0.1666661636943677  0.3333328690805219  0.5899858841044499   T   T   T
  0.9999996326799077  0.4999992998929784  0.5899853482225993   T   T   T
  0.1666666666666667  0.5000000000000000  0.5000000000000000   F   F   F
  0.0000000000000000  0.3333333333333333  0.5000000000000000   F   F   F
  0.1666660865133240  0.4999992890720078  0.6810581399124838   T   T   T
  0.9999994139964113  0.3333328944349780  0.6810580610364246   T   T   T
  0.1666666666666667  0.6666666666666666  0.4101680176145805   F   F   F
  0.0000000000000000  0.8333333333333334  0.4101680176145805   F   F   F
  0.1666666666666667  0.8333333333333334  0.3203360352291612   F   F   F
  0.0000000000000000  0.6666666666666666  0.3203360352291612   F   F   F
  0.1666661636943677  0.6666662024138552  0.5899858841044499   T   T   T
  0.9999996326799077  0.8333326332263118  0.5899853482225993   T   T   T
  0.1666666666666667  0.8333333333333334  0.5000000000000000   F   F   F
  0.0000000000000000  0.6666666666666666  0.5000000000000000   F   F   F
  0.1666660865133240  0.8333326224053411  0.6810581399124838   T   T   T
  0.9999994139964113  0.6666662277683115  0.6810580610364246   T   T   T
  0.5000000000000000  0.0000000000000000  0.4101680176145805   F   F   F
  0.3333333333333333  0.1666666666666667  0.4101680176145805   F   F   F
  0.5000000000000000  0.1666666666666667  0.3203360352291612   F   F   F
  0.3333333333333333  0.0000000000000000  0.3203360352291612   F   F   F
  0.4999994970277010  0.9999995357471886  0.5899858841044499   T   T   T
  0.3333329660132410  0.1666659665596450  0.5899853482225993   T   T   T
  0.5000000000000000  0.1666666666666667  0.5000000000000000   F   F   F
  0.3333333333333333  0.0000000000000000  0.5000000000000000   F   F   F
  0.4999994198466574  0.1666659557386744  0.6810581399124838   T   T   T
  0.3333327473297447  0.9999995611016448  0.6810580610364246   T   T   T
  0.5000000000000000  0.3333333333333333  0.4101680176145805   F   F   F
  0.3333333333333333  0.5000000000000000  0.4101680176145805   F   F   F
  0.5000000000000000  0.5000000000000000  0.3203360352291612   F   F   F
  0.3333333333333333  0.3333333333333333  0.3203360352291612   F   F   F
  0.4999994970277010  0.3333328690805219  0.5899858841044499   T   T   T
  0.3333329660132410  0.4999992998929784  0.5899853482225993   T   T   T
  0.5000000000000000  0.5000000000000000  0.5000000000000000   F   F   F
  0.3333333333333333  0.3333333333333333  0.5000000000000000   F   F   F
  0.3333327473297447  0.3333328944349780  0.6810580610364246   T   T   T
  0.5000000000000000  0.6666666666666666  0.4101680176145805   F   F   F
  0.3333333333333333  0.8333333333333334  0.4101680176145805   F   F   F
  0.5000000000000000  0.8333333333333334  0.3203360352291612   F   F   F
  0.3333333333333333  0.6666666666666666  0.3203360352291612   F   F   F
  0.4999994970277010  0.6666662024138552  0.5899858841044499   T   T   T
  0.3333329660132410  0.8333326332263118  0.5899853482225993   T   T   T
  0.5000000000000000  0.8333333333333334  0.5000000000000000   F   F   F
  0.3333333333333333  0.6666666666666666  0.5000000000000000   F   F   F
  0.4999994198466574  0.8333326224053411  0.6810581399124838   T   T   T
  0.3333327473297447  0.6666662277683115  0.6810580610364246   T   T   T
  0.8333333333333334  0.0000000000000000  0.4101680176145805   F   F   F
  0.6666666666666666  0.1666666666666667  0.4101680176145805   F   F   F
  0.8333333333333334  0.1666666666666667  0.3203360352291612   F   F   F
  0.6666666666666666  0.0000000000000000  0.3203360352291612   F   F   F
  0.8333328303610343  0.9999995357471886  0.5899858841044499   T   T   T
  0.6666662993465743  0.1666659665596450  0.5899853482225993   T   T   T
  0.8333333333333334  0.1666666666666667  0.5000000000000000   F   F   F
  0.6666666666666666  0.0000000000000000  0.5000000000000000   F   F   F
  0.8333327531799907  0.1666659557386744  0.6810581399124838   T   T   T
  0.6666660806630781  0.9999995611016448  0.6810580610364246   T   T   T
  0.8333333333333334  0.3333333333333333  0.4101680176145805   F   F   F
  0.6666666666666666  0.5000000000000000  0.4101680176145805   F   F   F
  0.8333333333333334  0.5000000000000000  0.3203360352291612   F   F   F
  0.6666666666666666  0.3333333333333333  0.3203360352291612   F   F   F
  0.8333328303610343  0.3333328690805219  0.5899858841044499   T   T   T
  0.6666662993465743  0.4999992998929784  0.5899853482225993   T   T   T
  0.8333333333333334  0.5000000000000000  0.5000000000000000   F   F   F
  0.6666666666666666  0.3333333333333333  0.5000000000000000   F   F   F
  0.8333327531799907  0.4999992890720078  0.6810581399124838   T   T   T
  0.6666660806630781  0.3333328944349780  0.6810580610364246   T   T   T
  0.8333333333333334  0.6666666666666666  0.4101680176145805   F   F   F
  0.6666666666666666  0.8333333333333334  0.4101680176145805   F   F   F
  0.8333333333333334  0.8333333333333334  0.3203360352291612   F   F   F
  0.6666666666666666  0.6666666666666666  0.3203360352291612   F   F   F
  0.8333328303610343  0.6666662024138552  0.5899858841044499   T   T   T
  0.6666662993465743  0.8333326332263118  0.5899853482225993   T   T   T
  0.8333333333333334  0.8333333333333334  0.5000000000000000   F   F   F
  0.6666666666666666  0.6666666666666666  0.5000000000000000   F   F   F
  0.8333327531799907  0.8333326224053411  0.6810581399124838   T   T   T
  0.6666660806630781  0.6666662277683115  0.6810580610364246   T   T   T
