 O Ti                                   
   1.00000000000000     
    13.0160748915413169    0.0000000000000000    0.0000000000000000
     0.0000000000000000   17.7665561607577871    0.0000000000000000
     0.0000000000000000    0.0000000000000000   31.5655356285642696
   O    Ti
   240   120
Selective dynamics
Direct
  0.0977323101498797  0.0833333333333357  0.2937409704476508   F   F   F
  0.4022676898501203  0.0833333333333357  0.2937409704476508   F   F   F
  0.2500000000000000  0.0000000000000000  0.2534409710051193   F   F   F
  0.2500000000000000  0.0000000000000000  0.3340409698901823   F   F   F
  0.3477323101498797  0.0833333333333357  0.3968286785472515   F   F   F
  0.1522676898501203  0.0833333333333357  0.3968286785472515   F   F   F
  0.0000000000000000  0.0000000000000000  0.3565286791047342   F   F   F
  0.0000000000000000  0.0000000000000000  0.4371286779897829   F   F   F
  0.0977323101498797  0.0833333333333357  0.4999163866468734   F   F   F
  0.4022676898501203  0.0833333333333357  0.4999163866468734   F   F   F
  0.2500000000000000  0.0000000000000000  0.4596163872043419   F   F   F
  0.2500000000000000  0.0000000000000000  0.5402163860893978   F   F   F
  0.3499605291145045  0.0833333414647157  0.6034772240819493   T   T   T
  0.1500417087196482  0.0833333468685638  0.6034773962401090   T   T   T
  0.0000006479079531  0.9999999961348323  0.5631820646404222   T   T   T
  0.0000007263748998  0.0000000205822701  0.6439184740824544   T   T   T
  0.0936352348644718  0.0833333005748713  0.7113467787171075   T   T   T
  0.4063657135038952  0.0833333059612258  0.7113468490114343   T   T   T
  0.2500005756684516  0.3333333267177281  0.6658253350306893   T   T   T
  0.2500002357844266  0.0000000564161979  0.7465590289948807   T   T   T
  0.0977323101498797  0.2500000000000000  0.2937409704476508   F   F   F
  0.4022676898501203  0.2500000000000000  0.2937409704476508   F   F   F
  0.2500000000000000  0.1666666666666643  0.2534409710051193   F   F   F
  0.2500000000000000  0.1666666666666643  0.3340409698901823   F   F   F
  0.3477323101498797  0.2500000000000000  0.3968286785472515   F   F   F
  0.1522676898501203  0.2500000000000000  0.3968286785472515   F   F   F
  0.0000000000000000  0.1666666666666643  0.3565286791047342   F   F   F
  0.0000000000000000  0.1666666666666643  0.4371286779897829   F   F   F
  0.0977323101498797  0.2500000000000000  0.4999163866468734   F   F   F
  0.4022676898501203  0.2500000000000000  0.4999163866468734   F   F   F
  0.2500000000000000  0.1666666666666643  0.4596163872043419   F   F   F
  0.2500000000000000  0.1666666666666643  0.5402163860893978   F   F   F
  0.3499605231504148  0.2499999751316295  0.6034772295433513   T   T   T
  0.1500417129587461  0.2499999842176308  0.6034774024401131   T   T   T
  0.0000006594552815  0.1666666791652176  0.5631820518414159   T   T   T
  0.0000007413255503  0.1666666422156098  0.6439184439851076   T   T   T
  0.0936352400005589  0.2500000305991534  0.7113467414328127   T   T   T
  0.4063656645372475  0.2500000433023075  0.7113468071480398   T   T   T
  0.2500005815060220  0.1666666361800537  0.6658252918301812   T   T   T
  0.2500002067803919  0.1666666113204300  0.7465589428978490   T   T   T
  0.0977323101498797  0.4166666666666643  0.2937409704476508   F   F   F
  0.4022676898501203  0.4166666666666643  0.2937409704476508   F   F   F
  0.2500000000000000  0.3333333333333357  0.2534409710051193   F   F   F
  0.2500000000000000  0.3333333333333357  0.3340409698901823   F   F   F
  0.3477323101498797  0.4166666666666643  0.3968286785472515   F   F   F
  0.1522676898501203  0.4166666666666643  0.3968286785472515   F   F   F
  0.0000000000000000  0.3333333333333357  0.3565286791047342   F   F   F
  0.0000000000000000  0.3333333333333357  0.4371286779897829   F   F   F
  0.0977323101498797  0.4166666666666643  0.4999163866468734   F   F   F
  0.4022676898501203  0.4166666666666643  0.4999163866468734   F   F   F
  0.2500000000000000  0.3333333333333357  0.4596163872043419   F   F   F
  0.2500000000000000  0.3333333333333357  0.5402163860893978   F   F   F
  0.3499605291145045  0.4166666747980514  0.6034772240819493   T   T   T
  0.1500417087196482  0.4166666802018995  0.6034773962401090   T   T   T
  0.0000006479079531  0.3333333294681680  0.5631820646404222   T   T   T
  0.0000007263748998  0.3333333539156058  0.6439184740824544   T   T   T
  0.0936352348644718  0.4166666339081999  0.7113467787171075   T   T   T
  0.4063657135038952  0.4166666392945544  0.7113468490114343   T   T   T
  0.2500005756684516  0.6666666600510638  0.6658253350306893   T   T   T
  0.2500002357844266  0.3333333897495336  0.7465590289948807   T   T   T
  0.0977323101498797  0.5833333333333357  0.2937409704476508   F   F   F
  0.4022676898501203  0.5833333333333357  0.2937409704476508   F   F   F
  0.2500000000000000  0.5000000000000000  0.2534409710051193   F   F   F
  0.2500000000000000  0.5000000000000000  0.3340409698901823   F   F   F
  0.3477323101498797  0.5833333333333357  0.3968286785472515   F   F   F
  0.1522676898501203  0.5833333333333357  0.3968286785472515   F   F   F
  0.0000000000000000  0.5000000000000000  0.3565286791047342   F   F   F
  0.0000000000000000  0.5000000000000000  0.4371286779897829   F   F   F
  0.0977323101498797  0.5833333333333357  0.4999163866468734   F   F   F
  0.4022676898501203  0.5833333333333357  0.4999163866468734   F   F   F
  0.2500000000000000  0.5000000000000000  0.4596163872043419   F   F   F
  0.2500000000000000  0.5000000000000000  0.5402163860893978   F   F   F
  0.3499605231504148  0.5833333084649652  0.6034772295433513   T   T   T
  0.1500417129587461  0.5833333175509594  0.6034774024401131   T   T   T
  0.0000006594552815  0.5000000124985533  0.5631820518414159   T   T   T
  0.0000007413255503  0.4999999755489455  0.6439184439851076   T   T   T
  0.0936352400005589  0.5833333639324891  0.7113467414328127   T   T   T
  0.4063656645372475  0.5833333766356432  0.7113468071480398   T   T   T
  0.2500005815060220  0.4999999695133894  0.6658252918301812   T   T   T
  0.2500002067803919  0.4999999446537657  0.7465589428978490   T   T   T
  0.0977323101498797  0.7500000000000000  0.2937409704476508   F   F   F
  0.4022676898501203  0.7500000000000000  0.2937409704476508   F   F   F
  0.2500000000000000  0.6666666666666643  0.2534409710051193   F   F   F
  0.2500000000000000  0.6666666666666643  0.3340409698901823   F   F   F
  0.3477323101498797  0.7500000000000000  0.3968286785472515   F   F   F
  0.1522676898501203  0.7500000000000000  0.3968286785472515   F   F   F
  0.0000000000000000  0.6666666666666643  0.3565286791047342   F   F   F
  0.0000000000000000  0.6666666666666643  0.4371286779897829   F   F   F
  0.0977323101498797  0.7500000000000000  0.4999163866468734   F   F   F
  0.4022676898501203  0.7500000000000000  0.4999163866468734   F   F   F
  0.2500000000000000  0.6666666666666643  0.4596163872043419   F   F   F
  0.2500000000000000  0.6666666666666643  0.5402163860893978   F   F   F
  0.3499605291145045  0.7500000081313871  0.6034772240819493   T   T   T
  0.1500417087196482  0.7500000135352352  0.6034773962401090   T   T   T
  0.0000006479079531  0.6666666628015037  0.5631820646404222   T   T   T
  0.0000007263748998  0.6666666872489415  0.6439184740824544   T   T   T
  0.0936352348644718  0.7499999672415356  0.7113467787171075   T   T   T
  0.4063657135038952  0.7499999726278901  0.7113468490114343   T   T   T
  0.2500005756684516  0.9999999933843995  0.6658253350306893   T   T   T
  0.2500002357844266  0.6666667230828622  0.7465590289948807   T   T   T
  0.0977323101498797  0.9166666666666643  0.2937409704476508   F   F   F
  0.4022676898501203  0.9166666666666643  0.2937409704476508   F   F   F
  0.2500000000000000  0.8333333333333357  0.2534409710051193   F   F   F
  0.2500000000000000  0.8333333333333357  0.3340409698901823   F   F   F
  0.3477323101498797  0.9166666666666643  0.3968286785472515   F   F   F
  0.1522676898501203  0.9166666666666643  0.3968286785472515   F   F   F
  0.0000000000000000  0.8333333333333357  0.3565286791047342   F   F   F
  0.0000000000000000  0.8333333333333357  0.4371286779897829   F   F   F
  0.0977323101498797  0.9166666666666643  0.4999163866468734   F   F   F
  0.4022676898501203  0.9166666666666643  0.4999163866468734   F   F   F
  0.2500000000000000  0.8333333333333357  0.4596163872043419   F   F   F
  0.2500000000000000  0.8333333333333357  0.5402163860893978   F   F   F
  0.3499605231504148  0.9166666417983009  0.6034772295433513   T   T   T
  0.1500417129587461  0.9166666508842951  0.6034774024401131   T   T   T
  0.0000006594552815  0.8333333458318890  0.5631820518414159   T   T   T
  0.0000007413255503  0.8333333088822741  0.6439184439851076   T   T   T
  0.0936352400005589  0.9166666972658248  0.7113467414328127   T   T   T
  0.4063656645372475  0.9166667099689718  0.7113468071480398   T   T   T
  0.2500005815060220  0.8333333028467180  0.6658252918301812   T   T   T
  0.2500002067803919  0.8333332779871014  0.7465589428978490   T   T   T
  0.5977323101498797  0.0833333333333357  0.2937409704476508   F   F   F
  0.9022676898501203  0.0833333333333357  0.2937409704476508   F   F   F
  0.7500000000000000  0.0000000000000000  0.2534409710051193   F   F   F
  0.7500000000000000  0.0000000000000000  0.3340409698901823   F   F   F
  0.8477323101498797  0.0833333333333357  0.3968286785472515   F   F   F
  0.6522676898501203  0.0833333333333357  0.3968286785472515   F   F   F
  0.5000000000000000  0.0000000000000000  0.3565286791047342   F   F   F
  0.5000000000000000  0.0000000000000000  0.4371286779897829   F   F   F
  0.5977323101498797  0.0833333333333357  0.4999163866468734   F   F   F
  0.9022676898501203  0.0833333333333357  0.4999163866468734   F   F   F
  0.7500000000000000  0.0000000000000000  0.4596163872043419   F   F   F
  0.7500000000000000  0.0000000000000000  0.5402163860893978   F   F   F
  0.8499605291145045  0.0833333414647157  0.6034772240819493   T   T   T
  0.6500417087196482  0.0833333468685638  0.6034773962401090   T   T   T
  0.5000006479079531  0.9999999961348323  0.5631820646404222   T   T   T
  0.5000007263748998  0.0000000205822701  0.6439184740824544   T   T   T
  0.5936352348644718  0.0833333005748713  0.7113467787171075   T   T   T
  0.9063657135038952  0.0833333059612258  0.7113468490114343   T   T   T
  0.7500005756684516  0.3333333267177281  0.6658253350306893   T   T   T
  0.7500002357844266  0.0000000564161979  0.7465590289948807   T   T   T
  0.5977323101498797  0.2500000000000000  0.2937409704476508   F   F   F
  0.9022676898501203  0.2500000000000000  0.2937409704476508   F   F   F
  0.7500000000000000  0.1666666666666643  0.2534409710051193   F   F   F
  0.7500000000000000  0.1666666666666643  0.3340409698901823   F   F   F
  0.8477323101498797  0.2500000000000000  0.3968286785472515   F   F   F
  0.6522676898501203  0.2500000000000000  0.3968286785472515   F   F   F
  0.5000000000000000  0.1666666666666643  0.3565286791047342   F   F   F
  0.5000000000000000  0.1666666666666643  0.4371286779897829   F   F   F
  0.5977323101498797  0.2500000000000000  0.4999163866468734   F   F   F
  0.9022676898501203  0.2500000000000000  0.4999163866468734   F   F   F
  0.7500000000000000  0.1666666666666643  0.4596163872043419   F   F   F
  0.7500000000000000  0.1666666666666643  0.5402163860893978   F   F   F
  0.8499605231504148  0.2499999751316295  0.6034772295433513   T   T   T
  0.6500417129587461  0.2499999842176308  0.6034774024401131   T   T   T
  0.5000006594552815  0.1666666791652176  0.5631820518414159   T   T   T
  0.5000007413255503  0.1666666422156098  0.6439184439851076   T   T   T
  0.5936352400005589  0.2500000305991534  0.7113467414328127   T   T   T
  0.9063656645372475  0.2500000433023075  0.7113468071480398   T   T   T
  0.7500005815060220  0.1666666361800537  0.6658252918301812   T   T   T
  0.7500002067803919  0.1666666113204300  0.7465589428978490   T   T   T
  0.5977323101498797  0.4166666666666643  0.2937409704476508   F   F   F
  0.9022676898501203  0.4166666666666643  0.2937409704476508   F   F   F
  0.7500000000000000  0.3333333333333357  0.2534409710051193   F   F   F
  0.7500000000000000  0.3333333333333357  0.3340409698901823   F   F   F
  0.8477323101498797  0.4166666666666643  0.3968286785472515   F   F   F
  0.6522676898501203  0.4166666666666643  0.3968286785472515   F   F   F
  0.5000000000000000  0.3333333333333357  0.3565286791047342   F   F   F
  0.5000000000000000  0.3333333333333357  0.4371286779897829   F   F   F
  0.5977323101498797  0.4166666666666643  0.4999163866468734   F   F   F
  0.9022676898501203  0.4166666666666643  0.4999163866468734   F   F   F
  0.7500000000000000  0.3333333333333357  0.4596163872043419   F   F   F
  0.7500000000000000  0.3333333333333357  0.5402163860893978   F   F   F
  0.8499605291145045  0.4166666747980514  0.6034772240819493   T   T   T
  0.6500417087196482  0.4166666802018995  0.6034773962401090   T   T   T
  0.5000006479079531  0.3333333294681680  0.5631820646404222   T   T   T
  0.5000007263748998  0.3333333539156058  0.6439184740824544   T   T   T
  0.5936352348644718  0.4166666339081999  0.7113467787171075   T   T   T
  0.9063657135038952  0.4166666392945544  0.7113468490114343   T   T   T
  0.7500005756684516  0.6666666600510638  0.6658253350306893   T   T   T
  0.7500002357844266  0.3333333897495336  0.7465590289948807   T   T   T
  0.5977323101498797  0.5833333333333357  0.2937409704476508   F   F   F
  0.9022676898501203  0.5833333333333357  0.2937409704476508   F   F   F
  0.7500000000000000  0.5000000000000000  0.2534409710051193   F   F   F
  0.7500000000000000  0.5000000000000000  0.3340409698901823   F   F   F
  0.8477323101498797  0.5833333333333357  0.3968286785472515   F   F   F
  0.6522676898501203  0.5833333333333357  0.3968286785472515   F   F   F
  0.5000000000000000  0.5000000000000000  0.3565286791047342   F   F   F
  0.5000000000000000  0.5000000000000000  0.4371286779897829   F   F   F
  0.5977323101498797  0.5833333333333357  0.4999163866468734   F   F   F
  0.9022676898501203  0.5833333333333357  0.4999163866468734   F   F   F
  0.7500000000000000  0.5000000000000000  0.4596163872043419   F   F   F
  0.7500000000000000  0.5000000000000000  0.5402163860893978   F   F   F
  0.8499605231504148  0.5833333084649652  0.6034772295433513   T   T   T
  0.6500417129587461  0.5833333175509594  0.6034774024401131   T   T   T
  0.5000006594552815  0.5000000124985533  0.5631820518414159   T   T   T
  0.5000007413255503  0.4999999755489455  0.6439184439851076   T   T   T
  0.5936352400005589  0.5833333639324891  0.7113467414328127   T   T   T
  0.9063656645372475  0.5833333766356432  0.7113468071480398   T   T   T
  0.7500005815060220  0.4999999695133894  0.6658252918301812   T   T   T
  0.7500002067803919  0.4999999446537657  0.7465589428978490   T   T   T
  0.5977323101498797  0.7500000000000000  0.2937409704476508   F   F   F
  0.9022676898501203  0.7500000000000000  0.2937409704476508   F   F   F
  0.7500000000000000  0.6666666666666643  0.2534409710051193   F   F   F
  0.7500000000000000  0.6666666666666643  0.3340409698901823   F   F   F
  0.8477323101498797  0.7500000000000000  0.3968286785472515   F   F   F
  0.6522676898501203  0.7500000000000000  0.3968286785472515   F   F   F
  0.5000000000000000  0.6666666666666643  0.3565286791047342   F   F   F
  0.5000000000000000  0.6666666666666643  0.4371286779897829   F   F   F
  0.5977323101498797  0.7500000000000000  0.4999163866468734   F   F   F
  0.9022676898501203  0.7500000000000000  0.4999163866468734   F   F   F
  0.7500000000000000  0.6666666666666643  0.4596163872043419   F   F   F
  0.7500000000000000  0.6666666666666643  0.5402163860893978   F   F   F
  0.8499605291145045  0.7500000081313871  0.6034772240819493   T   T   T
  0.6500417087196482  0.7500000135352352  0.6034773962401090   T   T   T
  0.5000006479079531  0.6666666628015037  0.5631820646404222   T   T   T
  0.5000007263748998  0.6666666872489415  0.6439184740824544   T   T   T
  0.5936352348644718  0.7499999672415356  0.7113467787171075   T   T   T
  0.9063657135038952  0.7499999726278901  0.7113468490114343   T   T   T
  0.7500005756684516  0.9999999933843995  0.6658253350306893   T   T   T
  0.7500002357844266  0.6666667230828622  0.7465590289948807   T   T   T
  0.5977323101498797  0.9166666666666643  0.2937409704476508   F   F   F
  0.9022676898501203  0.9166666666666643  0.2937409704476508   F   F   F
  0.7500000000000000  0.8333333333333357  0.2534409710051193   F   F   F
  0.7500000000000000  0.8333333333333357  0.3340409698901823   F   F   F
  0.8477323101498797  0.9166666666666643  0.3968286785472515   F   F   F
  0.6522676898501203  0.9166666666666643  0.3968286785472515   F   F   F
  0.5000000000000000  0.8333333333333357  0.3565286791047342   F   F   F
  0.5000000000000000  0.8333333333333357  0.4371286779897829   F   F   F
  0.5977323101498797  0.9166666666666643  0.4999163866468734   F   F   F
  0.9022676898501203  0.9166666666666643  0.4999163866468734   F   F   F
  0.7500000000000000  0.8333333333333357  0.4596163872043419   F   F   F
  0.7500000000000000  0.8333333333333357  0.5402163860893978   F   F   F
  0.8499605231504148  0.9166666417983009  0.6034772295433513   T   T   T
  0.6500417129587461  0.9166666508842951  0.6034774024401131   T   T   T
  0.5000006594552815  0.8333333458318890  0.5631820518414159   T   T   T
  0.5000007413255503  0.8333333088822741  0.6439184439851076   T   T   T
  0.5936352400005589  0.9166666972658248  0.7113467414328127   T   T   T
  0.9063656645372475  0.9166667099689718  0.7113468071480398   T   T   T
  0.7500005815060220  0.8333333028467180  0.6658252918301812   T   T   T
  0.7500002067803919  0.8333332779871014  0.7465589428978490   T   T   T
  0.2500000000000000  0.0833333333333357  0.2937409704476508   F   F   F
  0.0000000000000000  0.0000000000000000  0.2937409704476508   F   F   F
  0.0000000000000000  0.0833333333333357  0.3968286785472515   F   F   F
  0.2500000000000000  0.0000000000000000  0.3968286785472515   F   F   F
  0.2500000000000000  0.0833333333333357  0.4999163866468734   F   F   F
  0.0000000000000000  0.0000000000000000  0.4999163866468734   F   F   F
  0.4999950501122328  0.0833333091148205  0.6008332595436485   T   T   T
  0.2499962250722874  0.0000000164455258  0.6067583692878102   T   T   T
  0.2500006483489798  0.0833336559245623  0.7126953311077173   T   T   T
  0.0000005080000420  0.9999999933563259  0.7013463756506297   T   T   T
  0.2500000000000000  0.2500000000000000  0.2937409704476508   F   F   F
  0.0000000000000000  0.1666666666666643  0.2937409704476508   F   F   F
  0.0000000000000000  0.2500000000000000  0.3968286785472515   F   F   F
  0.2500000000000000  0.1666666666666643  0.3968286785472515   F   F   F
  0.2500000000000000  0.2500000000000000  0.4999163866468734   F   F   F
  0.0000000000000000  0.1666666666666643  0.4999163866468734   F   F   F
  0.4999950350690412  0.2500000307364658  0.6008332731424062   T   T   T
  0.2499962358398093  0.1666666938371293  0.6067584293955122   T   T   T
  0.2500006599529669  0.2499996986722905  0.7126954793423863   T   T   T
  0.0000004636441631  0.1666666943540349  0.7013463651252465   T   T   T
  0.2500000000000000  0.4166666666666643  0.2937409704476508   F   F   F
  0.0000000000000000  0.3333333333333357  0.2937409704476508   F   F   F
  0.0000000000000000  0.4166666666666643  0.3968286785472515   F   F   F
  0.2500000000000000  0.3333333333333357  0.3968286785472515   F   F   F
  0.2500000000000000  0.4166666666666643  0.4999163866468734   F   F   F
  0.0000000000000000  0.3333333333333357  0.4999163866468734   F   F   F
  0.4999950501122328  0.4166666424481491  0.6008332595436485   T   T   T
  0.2499962250722874  0.3333333497788615  0.6067583692878102   T   T   T
  0.2500006483489798  0.4166669892578980  0.7126953311077173   T   T   T
  0.0000005080000420  0.3333333266896616  0.7013463756506297   T   T   T
  0.2500000000000000  0.5833333333333357  0.2937409704476508   F   F   F
  0.0000000000000000  0.5000000000000000  0.2937409704476508   F   F   F
  0.0000000000000000  0.5833333333333357  0.3968286785472515   F   F   F
  0.2500000000000000  0.5000000000000000  0.3968286785472515   F   F   F
  0.2500000000000000  0.5833333333333357  0.4999163866468734   F   F   F
  0.0000000000000000  0.5000000000000000  0.4999163866468734   F   F   F
  0.4999950350690412  0.5833333640698015  0.6008332731424062   T   T   T
  0.2499962358398093  0.5000000271704579  0.6067584293955122   T   T   T
  0.2500006599529669  0.5833330320056191  0.7126954793423863   T   T   T
  0.0000004636441631  0.5000000276873706  0.7013463651252465   T   T   T
  0.2500000000000000  0.7500000000000000  0.2937409704476508   F   F   F
  0.0000000000000000  0.6666666666666643  0.2937409704476508   F   F   F
  0.0000000000000000  0.7500000000000000  0.3968286785472515   F   F   F
  0.2500000000000000  0.6666666666666643  0.3968286785472515   F   F   F
  0.2500000000000000  0.7500000000000000  0.4999163866468734   F   F   F
  0.0000000000000000  0.6666666666666643  0.4999163866468734   F   F   F
  0.4999950501122328  0.7499999757814848  0.6008332595436485   T   T   T
  0.2499962250722874  0.6666666831121901  0.6067583692878102   T   T   T
  0.2500006483489798  0.7500003225912337  0.7126953311077173   T   T   T
  0.0000005080000420  0.6666666600229973  0.7013463756506297   T   T   T
  0.2500000000000000  0.9166666666666643  0.2937409704476508   F   F   F
  0.0000000000000000  0.8333333333333357  0.2937409704476508   F   F   F
  0.0000000000000000  0.9166666666666643  0.3968286785472515   F   F   F
  0.2500000000000000  0.8333333333333357  0.3968286785472515   F   F   F
  0.2500000000000000  0.9166666666666643  0.4999163866468734   F   F   F
  0.0000000000000000  0.8333333333333357  0.4999163866468734   F   F   F
  0.4999950350690412  0.9166666974031372  0.6008332731424062   T   T   T
  0.2499962358398093  0.8333333605037936  0.6067584293955122   T   T   T
  0.2500006599529669  0.9166663653389548  0.7126954793423863   T   T   T
  0.0000004636441631  0.8333333610207063  0.7013463651252465   T   T   T
  0.7500000000000000  0.0833333333333357  0.2937409704476508   F   F   F
  0.5000000000000000  0.0000000000000000  0.2937409704476508   F   F   F
  0.5000000000000000  0.0833333333333357  0.3968286785472515   F   F   F
  0.7500000000000000  0.0000000000000000  0.3968286785472515   F   F   F
  0.7500000000000000  0.0833333333333357  0.4999163866468734   F   F   F
  0.5000000000000000  0.0000000000000000  0.4999163866468734   F   F   F
  0.9999950501122328  0.0833333091148205  0.6008332595436485   T   T   T
  0.7499962250722874  0.0000000164455258  0.6067583692878102   T   T   T
  0.7500006483489798  0.0833336559245623  0.7126953311077173   T   T   T
  0.5000005080000420  0.9999999933563259  0.7013463756506297   T   T   T
  0.7500000000000000  0.2500000000000000  0.2937409704476508   F   F   F
  0.5000000000000000  0.1666666666666643  0.2937409704476508   F   F   F
  0.5000000000000000  0.2500000000000000  0.3968286785472515   F   F   F
  0.7500000000000000  0.1666666666666643  0.3968286785472515   F   F   F
  0.7500000000000000  0.2500000000000000  0.4999163866468734   F   F   F
  0.5000000000000000  0.1666666666666643  0.4999163866468734   F   F   F
  0.9999950350690412  0.2500000307364658  0.6008332731424062   T   T   T
  0.7499962358398093  0.1666666938371293  0.6067584293955122   T   T   T
  0.7500006599529669  0.2499996986722905  0.7126954793423863   T   T   T
  0.5000004636441631  0.1666666943540349  0.7013463651252465   T   T   T
  0.7500000000000000  0.4166666666666643  0.2937409704476508   F   F   F
  0.5000000000000000  0.3333333333333357  0.2937409704476508   F   F   F
  0.5000000000000000  0.4166666666666643  0.3968286785472515   F   F   F
  0.7500000000000000  0.3333333333333357  0.3968286785472515   F   F   F
  0.7500000000000000  0.4166666666666643  0.4999163866468734   F   F   F
  0.5000000000000000  0.3333333333333357  0.4999163866468734   F   F   F
  0.9999950501122328  0.4166666424481491  0.6008332595436485   T   T   T
  0.7499962250722874  0.3333333497788615  0.6067583692878102   T   T   T
  0.7500006483489798  0.4166669892578980  0.7126953311077173   T   T   T
  0.5000005080000420  0.3333333266896616  0.7013463756506297   T   T   T
  0.7500000000000000  0.5833333333333357  0.2937409704476508   F   F   F
  0.5000000000000000  0.5000000000000000  0.2937409704476508   F   F   F
  0.5000000000000000  0.5833333333333357  0.3968286785472515   F   F   F
  0.7500000000000000  0.5000000000000000  0.3968286785472515   F   F   F
  0.7500000000000000  0.5833333333333357  0.4999163866468734   F   F   F
  0.5000000000000000  0.5000000000000000  0.4999163866468734   F   F   F
  0.9999950350690412  0.5833333640698015  0.6008332731424062   T   T   T
  0.7499962358398093  0.5000000271704579  0.6067584293955122   T   T   T
  0.7500006599529669  0.5833330320056191  0.7126954793423863   T   T   T
  0.5000004636441631  0.5000000276873706  0.7013463651252465   T   T   T
  0.7500000000000000  0.7500000000000000  0.2937409704476508   F   F   F
  0.5000000000000000  0.6666666666666643  0.2937409704476508   F   F   F
  0.5000000000000000  0.7500000000000000  0.3968286785472515   F   F   F
  0.7500000000000000  0.6666666666666643  0.3968286785472515   F   F   F
  0.7500000000000000  0.7500000000000000  0.4999163866468734   F   F   F
  0.5000000000000000  0.6666666666666643  0.4999163866468734   F   F   F
  0.9999950501122328  0.7499999757814848  0.6008332595436485   T   T   T
  0.7499962250722874  0.6666666831121901  0.6067583692878102   T   T   T
  0.7500006483489798  0.7500003225912337  0.7126953311077173   T   T   T
  0.5000005080000420  0.6666666600229973  0.7013463756506297   T   T   T
  0.7500000000000000  0.9166666666666643  0.2937409704476508   F   F   F
  0.5000000000000000  0.8333333333333357  0.2937409704476508   F   F   F
  0.5000000000000000  0.9166666666666643  0.3968286785472515   F   F   F
  0.7500000000000000  0.8333333333333357  0.3968286785472515   F   F   F
  0.7500000000000000  0.9166666666666643  0.4999163866468734   F   F   F
  0.5000000000000000  0.8333333333333357  0.4999163866468734   F   F   F
  0.9999950350690412  0.9166666974031372  0.6008332731424062   T   T   T
  0.7499962358398093  0.8333333605037936  0.6067584293955122   T   T   T
  0.7500006599529669  0.9166663653389548  0.7126954793423863   T   T   T
  0.5000004636441631  0.8333333610207063  0.7013463651252465   T   T   T
 
  0.00000000E+00  0.00000000E+00  0.00000000E+00
  0.00000000E+00  0.00000000E+00  0.00000000E+00
  0.00000000E+00  0.00000000E+00  0.00000000E+00
  0.00000000E+00  0.00000000E+00  0.00000000E+00
  0.00000000E+00  0.00000000E+00  0.00000000E+00
  0.00000000E+00  0.00000000E+00  0.00000000E+00
  0.00000000E+00  0.00000000E+00  0.00000000E+00
  0.00000000E+00  0.00000000E+00  0.00000000E+00
  0.00000000E+00  0.00000000E+00  0.00000000E+00
  0.00000000E+00  0.00000000E+00  0.00000000E+00
  0.00000000E+00  0.00000000E+00  0.00000000E+00
  0.00000000E+00  0.00000000E+00  0.00000000E+00
  0.00000000E+00  0.00000000E+00  0.00000000E+00
  0.00000000E+00  0.00000000E+00  0.00000000E+00
  0.00000000E+00  0.00000000E+00  0.00000000E+00
  0.00000000E+00  0.00000000E+00  0.00000000E+00
  0.00000000E+00  0.00000000E+00  0.00000000E+00
  0.00000000E+00  0.00000000E+00  0.00000000E+00
  0.00000000E+00  0.00000000E+00  0.00000000E+00
  0.00000000E+00  0.00000000E+00  0.00000000E+00
  0.00000000E+00  0.00000000E+00  0.00000000E+00
  0.00000000E+00  0.00000000E+00  0.00000000E+00
  0.00000000E+00  0.00000000E+00  0.00000000E+00
  0.00000000E+00  0.00000000E+00  0.00000000E+00
  0.00000000E+00  0.00000000E+00  0.00000000E+00
  0.00000000E+00  0.00000000E+00  0.00000000E+00
  0.00000000E+00  0.00000000E+00  0.00000000E+00
  0.00000000E+00  0.00000000E+00  0.00000000E+00
  0.00000000E+00  0.00000000E+00  0.00000000E+00
  0.00000000E+00  0.00000000E+00  0.00000000E+00
  0.00000000E+00  0.00000000E+00  0.00000000E+00
  0.00000000E+00  0.00000000E+00  0.00000000E+00
  0.00000000E+00  0.00000000E+00  0.00000000E+00
  0.00000000E+00  0.00000000E+00  0.00000000E+00
  0.00000000E+00  0.00000000E+00  0.00000000E+00
  0.00000000E+00  0.00000000E+00  0.00000000E+00
  0.00000000E+00  0.00000000E+00  0.00000000E+00
  0.00000000E+00  0.00000000E+00  0.00000000E+00
  0.00000000E+00  0.00000000E+00  0.00000000E+00
  0.00000000E+00  0.00000000E+00  0.00000000E+00
  0.00000000E+00  0.00000000E+00  0.00000000E+00
  0.00000000E+00  0.00000000E+00  0.00000000E+00
  0.00000000E+00  0.00000000E+00  0.00000000E+00
  0.00000000E+00  0.00000000E+00  0.00000000E+00
  0.00000000E+00  0.00000000E+00  0.00000000E+00
  0.00000000E+00  0.00000000E+00  0.00000000E+00
  0.00000000E+00  0.00000000E+00  0.00000000E+00
  0.00000000E+00  0.00000000E+00  0.00000000E+00
  0.00000000E+00  0.00000000E+00  0.00000000E+00
  0.00000000E+00  0.00000000E+00  0.00000000E+00
  0.00000000E+00  0.00000000E+00  0.00000000E+00
  0.00000000E+00  0.00000000E+00  0.00000000E+00
  0.00000000E+00  0.00000000E+00  0.00000000E+00
  0.00000000E+00  0.00000000E+00  0.00000000E+00
  0.00000000E+00  0.00000000E+00  0.00000000E+00
  0.00000000E+00  0.00000000E+00  0.00000000E+00
  0.00000000E+00  0.00000000E+00  0.00000000E+00
  0.00000000E+00  0.00000000E+00  0.00000000E+00
  0.00000000E+00  0.00000000E+00  0.00000000E+00
  0.00000000E+00  0.00000000E+00  0.00000000E+00
  0.00000000E+00  0.00000000E+00  0.00000000E+00
  0.00000000E+00  0.00000000E+00  0.00000000E+00
  0.00000000E+00  0.00000000E+00  0.00000000E+00
  0.00000000E+00  0.00000000E+00  0.00000000E+00
  0.00000000E+00  0.00000000E+00  0.00000000E+00
  0.00000000E+00  0.00000000E+00  0.00000000E+00
  0.00000000E+00  0.00000000E+00  0.00000000E+00
  0.00000000E+00  0.00000000E+00  0.00000000E+00
  0.00000000E+00  0.00000000E+00  0.00000000E+00