Ti  O                                   
   1.00000000000000     
    13.0120215377706696    0.0000000000000000    0.0000000000000000
     0.0000000000000000   11.8401074605833276    0.0000000000000000
     0.0000000000000000    0.0000000000000000   30.5554804540249307
   Ti   O 
    80   159
Selective dynamics
Direct
  0.0000000000000000  0.1250000000000000  0.2870754878597097   F   F   F
  0.7500000000000000  0.0000000000000000  0.2870754878597097   F   F   F
  0.2500000000000000  0.1250000000000000  0.3935377439298549   F   F   F
  0.0000000000000000  0.0000000000000000  0.3935377439298549   F   F   F
  0.0000000000000000  0.1250000000000000  0.5000000000000000   F   F   F
  0.7500000000000000  0.0000000000000000  0.5000000000000000   F   F   F
  0.2500054333156214  0.1249927833719440  0.6042816122964823   T   T   T
  0.0000043685605178  0.0000067435633540  0.6102249251502059   T   T   T
  0.0000002241612478  0.1250007122572541  0.7197636621933299   T   T   T
  0.7500008773359426  0.9999911672888473  0.7080488736492754   T   T   T
  0.0000000000000000  0.3750000000000000  0.2870754878597097   F   F   F
  0.7500000000000000  0.2500000000000000  0.2870754878597097   F   F   F
  0.2500000000000000  0.3750000000000000  0.3935377439298549   F   F   F
  0.0000000000000000  0.2500000000000000  0.3935377439298549   F   F   F
  0.0000000000000000  0.3750000000000000  0.5000000000000000   F   F   F
  0.7500000000000000  0.2500000000000000  0.5000000000000000   F   F   F
  0.2499889086960607  0.3750076866371188  0.6042824096141288   T   T   T
  0.0000031243463923  0.2499971905680880  0.6104039156617205   T   T   T
  0.9999994707591711  0.3750079377425592  0.7197561453691961   T   T   T
  0.7500006310982812  0.2499966898843056  0.7081709309545730   T   T   T
  0.0000000000000000  0.6250000000000000  0.2870754878597097   F   F   F
  0.7500000000000000  0.5000000000000000  0.2870754878597097   F   F   F
  0.2500000000000000  0.6250000000000000  0.3935377439298549   F   F   F
  0.0000000000000000  0.5000000000000000  0.3935377439298549   F   F   F
  0.0000000000000000  0.6250000000000000  0.5000000000000000   F   F   F
  0.7500000000000000  0.5000000000000000  0.5000000000000000   F   F   F
  0.2499818312328088  0.6249901187818594  0.6042816621846256   T   T   T
  0.9999509350562761  0.4999970997642933  0.6102185990972870   T   T   T
  0.0000037216057009  0.6249904153287886  0.7197610117854509   T   T   T
  0.7499999592680453  0.4999927269896602  0.7080483528120709   T   T   T
  0.0000000000000000  0.8750000000000000  0.2870754878597097   F   F   F
  0.7500000000000000  0.7500000000000000  0.2870754878597097   F   F   F
  0.2500000000000000  0.8750000000000000  0.3935377439298549   F   F   F
  0.0000000000000000  0.7500000000000000  0.3935377439298549   F   F   F
  0.0000000000000000  0.8750000000000000  0.5000000000000000   F   F   F
  0.7500000000000000  0.7500000000000000  0.5000000000000000   F   F   F
  0.2499933884372396  0.8750106292946356  0.6042817293952965   T   T   T
  0.9999994626397424  0.7500015903118751  0.6104031896704853   T   T   T
  0.9999977003006038  0.8750077754469672  0.7197616364214738   T   T   T
  0.7499999267823441  0.7499952326390726  0.7081694190991641   T   T   T
  0.5000000000000000  0.1250000000000000  0.2870754878597097   F   F   F
  0.2500000000000000  0.0000000000000000  0.2870754878597097   F   F   F
  0.7500000000000000  0.1250000000000000  0.3935377439298549   F   F   F
  0.5000000000000000  0.0000000000000000  0.3935377439298549   F   F   F
  0.5000000000000000  0.1250000000000000  0.5000000000000000   F   F   F
  0.2500000000000000  0.0000000000000000  0.5000000000000000   F   F   F
  0.7499932565343101  0.1249913659502866  0.6042822101949099   T   T   T
  0.4999944498103872  0.9999917392271556  0.6102227432255134   T   T   T
  0.5000002694596049  0.1249942833946207  0.7197606434688808   T   T   T
  0.2499988851430146  0.0000085471453986  0.7080489298915253   T   T   T
  0.5000000000000000  0.3750000000000000  0.2870754878597097   F   F   F
  0.2500000000000000  0.2500000000000000  0.2870754878597097   F   F   F
  0.7500000000000000  0.3750000000000000  0.3935377439298549   F   F   F
  0.5000000000000000  0.2500000000000000  0.3935377439298549   F   F   F
  0.5000000000000000  0.3750000000000000  0.5000000000000000   F   F   F
  0.2500000000000000  0.2500000000000000  0.5000000000000000   F   F   F
  0.7499882445915702  0.3750093817600373  0.6042800681864264   T   T   T
  0.5000070172558750  0.2500015936390767  0.6104019422532687   T   T   T
  0.5000006464175968  0.3750067547020066  0.7197615040191891   T   T   T
  0.2499994430345964  0.2500034055197347  0.7081707424830483   T   T   T
  0.5000000000000000  0.6250000000000000  0.2870754878597097   F   F   F
  0.2500000000000000  0.5000000000000000  0.2870754878597097   F   F   F
  0.7500000000000000  0.6250000000000000  0.3935377439298549   F   F   F
  0.5000000000000000  0.5000000000000000  0.3935377439298549   F   F   F
  0.5000000000000000  0.6250000000000000  0.5000000000000000   F   F   F
  0.2500000000000000  0.5000000000000000  0.5000000000000000   F   F   F
  0.7499887754689709  0.6249897009626295  0.6042822618593746   T   T   T
  0.4999232925022454  0.5000045500318038  0.6102153314349152   T   T   T
  0.4999962141377452  0.6249903206161704  0.7197589318006337   T   T   T
  0.2499989075199807  0.5000101224098117  0.7080493950286950   T   T   T
  0.5000000000000000  0.8750000000000000  0.2870754878597097   F   F   F
  0.2500000000000000  0.7500000000000000  0.2870754878597097   F   F   F
  0.7500000000000000  0.8750000000000000  0.3935377439298549   F   F   F
  0.5000000000000000  0.7500000000000000  0.3935377439298549   F   F   F
  0.5000000000000000  0.8750000000000000  0.5000000000000000   F   F   F
  0.2500000000000000  0.7500000000000000  0.5000000000000000   F   F   F
  0.7500060680736098  0.8750111879637004  0.6042810393842046   T   T   T
  0.5000073541500498  0.7499990656374393  0.6104031950279776   T   T   T
  0.5000040234692023  0.8750041718007679  0.7197618966094623   T   T   T
  0.2500021367502399  0.7500036997430684  0.7081690920958437   T   T   T
  0.8477349641203418  0.1250000000000000  0.2870754878597097   F   F   F
  0.1522650358796582  0.1250000000000000  0.2870754878597097   F   F   F
  0.0000000000000000  0.0000000000000000  0.2454551487509704   F   F   F
  0.0000000000000000  0.0000000000000000  0.3286958269684561   F   F   F
  0.0977349641203418  0.1250000000000000  0.3935377439298549   F   F   F
  0.9022650358796582  0.1250000000000000  0.3935377439298549   F   F   F
  0.2500000000000000  0.0000000000000000  0.3519174048211084   F   F   F
  0.2500000000000000  0.0000000000000000  0.4351580830386013   F   F   F
  0.8477349641203418  0.1250000000000000  0.5000000000000000   F   F   F
  0.1522650358796582  0.1250000000000000  0.5000000000000000   F   F   F
  0.0000000000000000  0.0000000000000000  0.4583796608912536   F   F   F
  0.0000000000000000  0.0000000000000000  0.5416203391087464   F   F   F
  0.0999920372436165  0.1250344876795637  0.6069860406597058   T   T   T
  0.9000136098983873  0.1250308191503464  0.6069862026062083   T   T   T
  0.2499831782163966  0.0000011032891862  0.5653458373088398   T   T   T
  0.2500013679424811  0.9999993666490283  0.6487411084956349   T   T   T
  0.8436415747122865  0.1249942275365399  0.7184882739383269   T   T   T
  0.1563614115303693  0.1249910576246265  0.7184880736232913   T   T   T
  0.0000099363794774  0.9999991100090426  0.6712903298730737   T   T   T
  0.0000006628918570  0.9999981538326921  0.7547605585282540   T   T   T
  0.8477349641203418  0.3750000000000000  0.2870754878597097   F   F   F
  0.1522650358796582  0.3750000000000000  0.2870754878597097   F   F   F
  0.0000000000000000  0.2500000000000000  0.2454551487509704   F   F   F
  0.0000000000000000  0.2500000000000000  0.3286958269684561   F   F   F
  0.0977349641203418  0.3750000000000000  0.3935377439298549   F   F   F
  0.9022650358796582  0.3750000000000000  0.3935377439298549   F   F   F
  0.2500000000000000  0.2500000000000000  0.3519174048211084   F   F   F
  0.2500000000000000  0.2500000000000000  0.4351580830386013   F   F   F
  0.8477349641203418  0.3750000000000000  0.5000000000000000   F   F   F
  0.1522650358796582  0.3750000000000000  0.5000000000000000   F   F   F
  0.0000000000000000  0.2500000000000000  0.4583796608912536   F   F   F
  0.0000000000000000  0.2500000000000000  0.5416203391087464   F   F   F
  0.0999908174588313  0.3749700816754569  0.6069854821471452   T   T   T
  0.9000164214911663  0.3749678142349282  0.6069873847883827   T   T   T
  0.2500009054830770  0.2500012542069499  0.5653516255656683   T   T   T
  0.2500015107407165  0.2499995682624956  0.6488063485603490   T   T   T
  0.8436410644292565  0.3750075225354692  0.7184881244476315   T   T   T
  0.1563577666639517  0.3750027238874978  0.7184892311106239   T   T   T
  0.0000011607641568  0.2500003211733386  0.6713482284427457   T   T   T
  0.0000007841345706  0.2499993720865703  0.7547678308025283   T   T   T
  0.8477349641203418  0.6250000000000000  0.2870754878597097   F   F   F
  0.1522650358796582  0.6250000000000000  0.2870754878597097   F   F   F
  0.0000000000000000  0.5000000000000000  0.2454551487509704   F   F   F
  0.0000000000000000  0.5000000000000000  0.3286958269684561   F   F   F
  0.0977349641203418  0.6250000000000000  0.3935377439298549   F   F   F
  0.9022650358796582  0.6250000000000000  0.3935377439298549   F   F   F
  0.2500000000000000  0.5000000000000000  0.3519174048211084   F   F   F
  0.2500000000000000  0.5000000000000000  0.4351580830386013   F   F   F
  0.8477349641203418  0.6250000000000000  0.5000000000000000   F   F   F
  0.1522650358796582  0.6250000000000000  0.5000000000000000   F   F   F
  0.0000000000000000  0.5000000000000000  0.4583796608912536   F   F   F
  0.0000000000000000  0.5000000000000000  0.5416203391087464   F   F   F
  0.0999883042772396  0.6250315254836920  0.6069859662050305   T   T   T
  0.9000165319108078  0.6250329736745854  0.6069868336100299   T   T   T
  0.2500020676893513  0.4999987846733802  0.5653451030127385   T   T   T
  0.2500023832685159  0.5000013993167158  0.6487415642247285   T   T   T
  0.8436450170275478  0.6249941948734019  0.7184878424914984   T   T   T
  0.1563586451562102  0.6249933382219908  0.7184866312980773   T   T   T
  0.0000062345510230  0.5000006581472718  0.6712906997230306   T   T   T
  0.9999973073149917  0.4999947630270114  0.7547603048522618   T   T   T
  0.8477349641203418  0.8750000000000000  0.2870754878597097   F   F   F
  0.1522650358796582  0.8750000000000000  0.2870754878597097   F   F   F
  0.0000000000000000  0.7500000000000000  0.2454551487509704   F   F   F
  0.0000000000000000  0.7500000000000000  0.3286958269684561   F   F   F
  0.0977349641203418  0.8750000000000000  0.3935377439298549   F   F   F
  0.9022650358796582  0.8750000000000000  0.3935377439298549   F   F   F
  0.2500000000000000  0.7500000000000000  0.3519174048211084   F   F   F
  0.2500000000000000  0.7500000000000000  0.4351580830386013   F   F   F
  0.8477349641203418  0.8750000000000000  0.5000000000000000   F   F   F
  0.1522650358796582  0.8750000000000000  0.5000000000000000   F   F   F
  0.0000000000000000  0.7500000000000000  0.4583796608912536   F   F   F
  0.0000000000000000  0.7500000000000000  0.5416203391087464   F   F   F
  0.0999886419842113  0.8749654702877976  0.6069863604462142   T   T   T
  0.9000176487759006  0.8749662804392457  0.6069872612140017   T   T   T
  0.2499999673988924  0.7500008010442869  0.5653544075996990   T   T   T
  0.2500013747868124  0.7499993808785419  0.6488061043447075   T   T   T
  0.8436436376481353  0.8750062748523177  0.7184862929310469   T   T   T
  0.1563587739885293  0.8750054288168201  0.7184882228497997   T   T   T
  0.0000004430369955  0.7499997366126436  0.6713489922437290   T   T   T
  0.0000059001911410  0.7499976806747526  0.7547676870602089   T   T   T
  0.3477349641203418  0.1250000000000000  0.2870754878597097   F   F   F
  0.6522650358796582  0.1250000000000000  0.2870754878597097   F   F   F
  0.5000000000000000  0.0000000000000000  0.2454551487509704   F   F   F
  0.5000000000000000  0.0000000000000000  0.3286958269684561   F   F   F
  0.5977349641203418  0.1250000000000000  0.3935377439298549   F   F   F
  0.4022650358796582  0.1250000000000000  0.3935377439298549   F   F   F
  0.7500000000000000  0.0000000000000000  0.3519174048211084   F   F   F
  0.7500000000000000  0.0000000000000000  0.4351580830386013   F   F   F
  0.3477349641203418  0.1250000000000000  0.5000000000000000   F   F   F
  0.6522650358796582  0.1250000000000000  0.5000000000000000   F   F   F
  0.5000000000000000  0.0000000000000000  0.4583796608912536   F   F   F
  0.5000000000000000  0.0000000000000000  0.5416203391087464   F   F   F
  0.5999887481980934  0.1250291298778663  0.6069848856331816   T   T   T
  0.4000115319978619  0.1250293814176047  0.6069853585668881   T   T   T
  0.7500187317353380  0.9999999541461264  0.5653458727848033   T   T   T
  0.7500008480346381  0.0000010392597858  0.6487399971904892   T   T   T
  0.3436432865069676  0.1249900731086271  0.7184871780935040   T   T   T
  0.6563583730493363  0.1249939020705071  0.7184881943444097   T   T   T
  0.5000091391682631  0.9999994108205925  0.6712904777319793   T   T   T
  0.5000017902598799  0.0000036790461806  0.7547586135395150   T   T   T
  0.3477349641203418  0.3750000000000000  0.2870754878597097   F   F   F
  0.6522650358796582  0.3750000000000000  0.2870754878597097   F   F   F
  0.5000000000000000  0.2500000000000000  0.2454551487509704   F   F   F
  0.5000000000000000  0.2500000000000000  0.3286958269684561   F   F   F
  0.5977349641203418  0.3750000000000000  0.3935377439298549   F   F   F
  0.4022650358796582  0.3750000000000000  0.3935377439298549   F   F   F
  0.7500000000000000  0.2500000000000000  0.3519174048211084   F   F   F
  0.7500000000000000  0.2500000000000000  0.4351580830386013   F   F   F
  0.3477349641203418  0.3750000000000000  0.5000000000000000   F   F   F
  0.6522650358796582  0.3750000000000000  0.5000000000000000   F   F   F
  0.5000000000000000  0.2500000000000000  0.4583796608912536   F   F   F
  0.5000000000000000  0.2500000000000000  0.5416203391087464   F   F   F
  0.5999882849884699  0.3749748810027356  0.6069850417340916   T   T   T
  0.4000076862334012  0.3749650650734750  0.6069842687280556   T   T   T
  0.7500021814031967  0.2500001429802978  0.5653511271887126   T   T   T
  0.7500009365944109  0.2499998650721551  0.6488072222377355   T   T   T
  0.3436412003395404  0.3750034246394307  0.7184883812364831   T   T   T
  0.6563592553520152  0.3750109323312785  0.7184866354863644   T   T   T
  0.4999993092254300  0.2499995487363762  0.6713461308625668   T   T   T
  0.5000004782425904  0.2499998728991315  0.7547707303596667   T   T   T
  0.3477349641203418  0.6250000000000000  0.2870754878597097   F   F   F
  0.6522650358796582  0.6250000000000000  0.2870754878597097   F   F   F
  0.5000000000000000  0.5000000000000000  0.2454551487509704   F   F   F
  0.5000000000000000  0.5000000000000000  0.3286958269684561   F   F   F
  0.5977349641203418  0.6250000000000000  0.3935377439298549   F   F   F
  0.4022650358796582  0.6250000000000000  0.3935377439298549   F   F   F
  0.7500000000000000  0.5000000000000000  0.3519174048211084   F   F   F
  0.7500000000000000  0.5000000000000000  0.4351580830386013   F   F   F
  0.3477349641203418  0.6250000000000000  0.5000000000000000   F   F   F
  0.6522650358796582  0.6250000000000000  0.5000000000000000   F   F   F
  0.5000000000000000  0.5000000000000000  0.4583796608912536   F   F   F
  0.5000000000000000  0.5000000000000000  0.5416203391087464   F   F   F
  0.5999869682935497  0.6250261152150429  0.6069846328668902   T   T   T
  0.4000104786854450  0.6250362489058787  0.6069845671983742   T   T   T
  0.7500199323622212  0.5000015860748022  0.5653455003031098   T   T   T
  0.7500037431026954  0.5000004152242710  0.6487406397814723   T   T   T
  0.3436413571451169  0.6249959252064841  0.7184862252439004   T   T   T
  0.6563597606518385  0.6249948644318977  0.7184868389340338   T   T   T
  0.4999828557126236  0.5000016532645333  0.6712880945450124   T   T   T
  0.3477349641203418  0.8750000000000000  0.2870754878597097   F   F   F
  0.6522650358796582  0.8750000000000000  0.2870754878597097   F   F   F
  0.5000000000000000  0.7500000000000000  0.2454551487509704   F   F   F
  0.5000000000000000  0.7500000000000000  0.3286958269684561   F   F   F
  0.5977349641203418  0.8750000000000000  0.3935377439298549   F   F   F
  0.4022650358796582  0.8750000000000000  0.3935377439298549   F   F   F
  0.7500000000000000  0.7500000000000000  0.3519174048211084   F   F   F
  0.7500000000000000  0.7500000000000000  0.4351580830386013   F   F   F
  0.3477349641203418  0.8750000000000000  0.5000000000000000   F   F   F
  0.6522650358796582  0.8750000000000000  0.5000000000000000   F   F   F
  0.5000000000000000  0.7500000000000000  0.4583796608912536   F   F   F
  0.5000000000000000  0.7500000000000000  0.5416203391087464   F   F   F
  0.5999901909113561  0.8749674135114063  0.6069848143277525   T   T   T
  0.4000117941554819  0.8749715092971257  0.6069847505325470   T   T   T
  0.7500027332503691  0.7499983060907809  0.5653542369806814   T   T   T
  0.7500018605469094  0.7500000843202557  0.6488057647770162   T   T   T
  0.3436426474283181  0.8750055777431243  0.7184868977897025   T   T   T
  0.6563616814243574  0.8750061801114697  0.7184853075146407   T   T   T
  0.4999999427314634  0.7500011801050093  0.6713470417889980   T   T   T
  0.5000006836439042  0.7500009058835104  0.7547677518368943   T   T   T
 
  0.00000000E+00  0.00000000E+00  0.00000000E+00
  0.00000000E+00  0.00000000E+00  0.00000000E+00
  0.00000000E+00  0.00000000E+00  0.00000000E+00
  0.00000000E+00  0.00000000E+00  0.00000000E+00
  0.00000000E+00  0.00000000E+00  0.00000000E+00
  0.00000000E+00  0.00000000E+00  0.00000000E+00
  0.00000000E+00  0.00000000E+00  0.00000000E+00
  0.00000000E+00  0.00000000E+00  0.00000000E+00
  0.00000000E+00  0.00000000E+00  0.00000000E+00
  0.00000000E+00  0.00000000E+00  0.00000000E+00
  0.00000000E+00  0.00000000E+00  0.00000000E+00
  0.00000000E+00  0.00000000E+00  0.00000000E+00
  0.00000000E+00  0.00000000E+00  0.00000000E+00
  0.00000000E+00  0.00000000E+00  0.00000000E+00
  0.00000000E+00  0.00000000E+00  0.00000000E+00
  0.00000000E+00  0.00000000E+00  0.00000000E+00
  0.00000000E+00  0.00000000E+00  0.00000000E+00
  0.00000000E+00  0.00000000E+00  0.00000000E+00
  0.00000000E+00  0.00000000E+00  0.00000000E+00
  0.00000000E+00  0.00000000E+00  0.00000000E+00
  0.00000000E+00  0.00000000E+00  0.00000000E+00
  0.00000000E+00  0.00000000E+00  0.00000000E+00
  0.00000000E+00  0.00000000E+00  0.00000000E+00
  0.00000000E+00  0.00000000E+00  0.00000000E+00
  0.00000000E+00  0.00000000E+00  0.00000000E+00
  0.00000000E+00  0.00000000E+00  0.00000000E+00
  0.00000000E+00  0.00000000E+00  0.00000000E+00
  0.00000000E+00  0.00000000E+00  0.00000000E+00
  0.00000000E+00  0.00000000E+00  0.00000000E+00
  0.00000000E+00  0.00000000E+00  0.00000000E+00
  0.00000000E+00  0.00000000E+00  0.00000000E+00
  0.00000000E+00  0.00000000E+00  0.00000000E+00
  0.00000000E+00  0.00000000E+00  0.00000000E+00
  0.00000000E+00  0.00000000E+00  0.00000000E+00
  0.00000000E+00  0.00000000E+00  0.00000000E+00
  0.00000000E+00  0.00000000E+00  0.00000000E+00
  0.00000000E+00  0.00000000E+00  0.00000000E+00
  0.00000000E+00  0.00000000E+00  0.00000000E+00
  0.00000000E+00  0.00000000E+00  0.00000000E+00
  0.00000000E+00  0.00000000E+00  0.00000000E+00
  0.00000000E+00  0.00000000E+00  0.00000000E+00
  0.00000000E+00  0.00000000E+00  0.00000000E+00
  0.00000000E+00  0.00000000E+00  0.00000000E+00
  0.00000000E+00  0.00000000E+00  0.00000000E+00
  0.00000000E+00  0.00000000E+00  0.00000000E+00
  0.00000000E+00  0.00000000E+00  0.00000000E+00
  0.00000000E+00  0.00000000E+00  0.00000000E+00
  0.00000000E+00  0.00000000E+00  0.00000000E+00
  0.00000000E+00  0.00000000E+00  0.00000000E+00
  0.00000000E+00  0.00000000E+00  0.00000000E+00
  0.00000000E+00  0.00000000E+00  0.00000000E+00
  0.00000000E+00  0.00000000E+00  0.00000000E+00
  0.00000000E+00  0.00000000E+00  0.00000000E+00
  0.00000000E+00  0.00000000E+00  0.00000000E+00
  0.00000000E+00  0.00000000E+00  0.00000000E+00
  0.00000000E+00  0.00000000E+00  0.00000000E+00
  0.00000000E+00  0.00000000E+00  0.00000000E+00
  0.00000000E+00  0.00000000E+00  0.00000000E+00
  0.00000000E+00  0.00000000E+00  0.00000000E+00
  0.00000000E+00  0.00000000E+00  0.00000000E+00
  0.00000000E+00  0.00000000E+00  0.00000000E+00
  0.00000000E+00  0.00000000E+00  0.00000000E+00
  0.00000000E+00  0.00000000E+00  0.00000000E+00
  0.00000000E+00  0.00000000E+00  0.00000000E+00
  0.00000000E+00  0.00000000E+00  0.00000000E+00
  0.00000000E+00  0.00000000E+00  0.00000000E+00
  0.00000000E+00  0.00000000E+00  0.00000000E+00
  0.00000000E+00  0.00000000E+00  0.00000000E+00
  0.00000000E+00  0.00000000E+00  0.00000000E+00
  0.00000000E+00  0.00000000E+00  0.00000000E+00
  0.00000000E+00  0.00000000E+00  0.00000000E+00
  0.00000000E+00  0.00000000E+00  0.00000000E+00
  0.00000000E+00  0.00000000E+00  0.00000000E+00
  0.00000000E+00  0.00000000E+00  0.00000000E+00
  0.00000000E+00  0.00000000E+00  0.00000000E+00
  0.00000000E+00  0.00000000E+00  0.00000000E+00
  0.00000000E+00  0.00000000E+00  0.00000000E+00
  0.00000000E+00  0.00000000E+00  0.00000000E+00
  0.00000000E+00  0.00000000E+00  0.00000000E+00
  0.00000000E+00  0.00000000E+00  0.00000000E+00
  0.00000000E+00  0.00000000E+00  0.00000000E+00
  0.00000000E+00  0.00000000E+00  0.00000000E+00
  0.00000000E+00  0.00000000E+00  0.00000000E+00
  0.00000000E+00  0.00000000E+00  0.00000000E+00
  0.00000000E+00  0.00000000E+00  0.00000000E+00
  0.00000000E+00  0.00000000E+00  0.00000000E+00
  0.00000000E+00  0.00000000E+00  0.00000000E+00
  0.00000000E+00  0.00000000E+00  0.00000000E+00
  0.00000000E+00  0.00000000E+00  0.00000000E+00
  0.00000000E+00  0.00000000E+00  0.00000000E+00
  0.00000000E+00  0.00000000E+00  0.00000000E+00
  0.00000000E+00  0.00000000E+00  0.00000000E+00
  0.00000000E+00  0.00000000E+00  0.00000000E+00
  0.00000000E+00  0.00000000E+00  0.00000000E+00
  0.00000000E+00  0.00000000E+00  0.00000000E+00
  0.00000000E+00  0.00000000E+00  0.00000000E+00
  0.00000000E+00  0.00000000E+00  0.00000000E+00
  0.00000000E+00  0.00000000E+00  0.00000000E+00
  0.00000000E+00  0.00000000E+00  0.00000000E+00
  0.00000000E+00  0.00000000E+00  0.00000000E+00
  0.00000000E+00  0.00000000E+00  0.00000000E+00
  0.00000000E+00  0.00000000E+00  0.00000000E+00
  0.00000000E+00  0.00000000E+00  0.00000000E+00
  0.00000000E+00  0.00000000E+00  0.00000000E+00
  0.00000000E+00  0.00000000E+00  0.00000000E+00
  0.00000000E+00  0.00000000E+00  0.00000000E+00
  0.00000000E+00  0.00000000E+00  0.00000000E+00
  0.00000000E+00  0.00000000E+00  0.00000000E+00
  0.00000000E+00  0.00000000E+00  0.00000000E+00
  0.00000000E+00  0.00000000E+00  0.00000000E+00
  0.00000000E+00  0.00000000E+00  0.00000000E+00
  0.00000000E+00  0.00000000E+00  0.00000000E+00
  0.00000000E+00  0.00000000E+00  0.00000000E+00
  0.00000000E+00  0.00000000E+00  0.00000000E+00
  0.00000000E+00  0.00000000E+00  0.00000000E+00
  0.00000000E+00  0.00000000E+00  0.00000000E+00
  0.00000000E+00  0.00000000E+00  0.00000000E+00
  0.00000000E+00  0.00000000E+00  0.00000000E+00
  0.00000000E+00  0.00000000E+00  0.00000000E+00
  0.00000000E+00  0.00000000E+00  0.00000000E+00
  0.00000000E+00  0.00000000E+00  0.00000000E+00
  0.00000000E+00  0.00000000E+00  0.00000000E+00
  0.00000000E+00  0.00000000E+00  0.00000000E+00
  0.00000000E+00  0.00000000E+00  0.00000000E+00
  0.00000000E+00  0.00000000E+00  0.00000000E+00
  0.00000000E+00  0.00000000E+00  0.00000000E+00
  0.00000000E+00  0.00000000E+00  0.00000000E+00
  0.00000000E+00  0.00000000E+00  0.00000000E+00
  0.00000000E+00  0.00000000E+00  0.00000000E+00
  0.00000000E+00  0.00000000E+00  0.00000000E+00
  0.00000000E+00  0.00000000E+00  0.00000000E+00
  0.00000000E+00  0.00000000E+00  0.00000000E+00
  0.00000000E+00  0.00000000E+00  0.00000000E+00
  0.00000000E+00  0.00000000E+00  0.00000000E+00
  0.00000000E+00  0.00000000E+00  0.00000000E+00
  0.00000000E+00  0.00000000E+00  0.00000000E+00
  0.00000000E+00  0.00000000E+00  0.00000000E+00
  0.00000000E+00  0.00000000E+00  0.00000000E+00
  0.00000000E+00  0.00000000E+00  0.00000000E+00
  0.00000000E+00  0.00000000E+00  0.00000000E+00
  0.00000000E+00  0.00000000E+00  0.00000000E+00
  0.00000000E+00  0.00000000E+00  0.00000000E+00
  0.00000000E+00  0.00000000E+00  0.00000000E+00
  0.00000000E+00  0.00000000E+00  0.00000000E+00
  0.00000000E+00  0.00000000E+00  0.00000000E+00
  0.00000000E+00  0.00000000E+00  0.00000000E+00
  0.00000000E+00  0.00000000E+00  0.00000000E+00
  0.00000000E+00  0.00000000E+00  0.00000000E+00
  0.00000000E+00  0.00000000E+00  0.00000000E+00
  0.00000000E+00  0.00000000E+00  0.00000000E+00
  0.00000000E+00  0.00000000E+00  0.00000000E+00
  0.00000000E+00  0.00000000E+00  0.00000000E+00
  0.00000000E+00  0.00000000E+00  0.00000000E+00
  0.00000000E+00  0.00000000E+00  0.00000000E+00
  0.00000000E+00  0.00000000E+00  0.00000000E+00
  0.00000000E+00  0.00000000E+00  0.00000000E+00
  0.00000000E+00  0.00000000E+00  0.00000000E+00
  0.00000000E+00  0.00000000E+00  0.00000000E+00
  0.00000000E+00  0.00000000E+00  0.00000000E+00
  0.00000000E+00  0.00000000E+00  0.00000000E+00
  0.00000000E+00  0.00000000E+00  0.00000000E+00
  0.00000000E+00  0.00000000E+00  0.00000000E+00
  0.00000000E+00  0.00000000E+00  0.00000000E+00
  0.00000000E+00  0.00000000E+00  0.00000000E+00
  0.00000000E+00  0.00000000E+00  0.00000000E+00
  0.00000000E+00  0.00000000E+00  0.00000000E+00
  0.00000000E+00  0.00000000E+00  0.00000000E+00
  0.00000000E+00  0.00000000E+00  0.00000000E+00
  0.00000000E+00  0.00000000E+00  0.00000000E+00
  0.00000000E+00  0.00000000E+00  0.00000000E+00
  0.00000000E+00  0.00000000E+00  0.00000000E+00
  0.00000000E+00  0.00000000E+00  0.00000000E+00
  0.00000000E+00  0.00000000E+00  0.00000000E+00
  0.00000000E+00  0.00000000E+00  0.00000000E+00
  0.00000000E+00  0.00000000E+00  0.00000000E+00
  0.00000000E+00  0.00000000E+00  0.00000000E+00
  0.00000000E+00  0.00000000E+00  0.00000000E+00
  0.00000000E+00  0.00000000E+00  0.00000000E+00
  0.00000000E+00  0.00000000E+00  0.00000000E+00
  0.00000000E+00  0.00000000E+00  0.00000000E+00
  0.00000000E+00  0.00000000E+00  0.00000000E+00
  0.00000000E+00  0.00000000E+00  0.00000000E+00
  0.00000000E+00  0.00000000E+00  0.00000000E+00
  0.00000000E+00  0.00000000E+00  0.00000000E+00
  0.00000000E+00  0.00000000E+00  0.00000000E+00
  0.00000000E+00  0.00000000E+00  0.00000000E+00
  0.00000000E+00  0.00000000E+00  0.00000000E+00
  0.00000000E+00  0.00000000E+00  0.00000000E+00
  0.00000000E+00  0.00000000E+00  0.00000000E+00
  0.00000000E+00  0.00000000E+00  0.00000000E+00
  0.00000000E+00  0.00000000E+00  0.00000000E+00
  0.00000000E+00  0.00000000E+00  0.00000000E+00
  0.00000000E+00  0.00000000E+00  0.00000000E+00
  0.00000000E+00  0.00000000E+00  0.00000000E+00
  0.00000000E+00  0.00000000E+00  0.00000000E+00
  0.00000000E+00  0.00000000E+00  0.00000000E+00
  0.00000000E+00  0.00000000E+00  0.00000000E+00
  0.00000000E+00  0.00000000E+00  0.00000000E+00
  0.00000000E+00  0.00000000E+00  0.00000000E+00
  0.00000000E+00  0.00000000E+00  0.00000000E+00
  0.00000000E+00  0.00000000E+00  0.00000000E+00
  0.00000000E+00  0.00000000E+00  0.00000000E+00
  0.00000000E+00  0.00000000E+00  0.00000000E+00
  0.00000000E+00  0.00000000E+00  0.00000000E+00
  0.00000000E+00  0.00000000E+00  0.00000000E+00
  0.00000000E+00  0.00000000E+00  0.00000000E+00
  0.00000000E+00  0.00000000E+00  0.00000000E+00
  0.00000000E+00  0.00000000E+00  0.00000000E+00
  0.00000000E+00  0.00000000E+00  0.00000000E+00
  0.00000000E+00  0.00000000E+00  0.00000000E+00
  0.00000000E+00  0.00000000E+00  0.00000000E+00
  0.00000000E+00  0.00000000E+00  0.00000000E+00
  0.00000000E+00  0.00000000E+00  0.00000000E+00
  0.00000000E+00  0.00000000E+00  0.00000000E+00
  0.00000000E+00  0.00000000E+00  0.00000000E+00
  0.00000000E+00  0.00000000E+00  0.00000000E+00
  0.00000000E+00  0.00000000E+00  0.00000000E+00
  0.00000000E+00  0.00000000E+00  0.00000000E+00
  0.00000000E+00  0.00000000E+00  0.00000000E+00
  0.00000000E+00  0.00000000E+00  0.00000000E+00
  0.00000000E+00  0.00000000E+00  0.00000000E+00
  0.00000000E+00  0.00000000E+00  0.00000000E+00
  0.00000000E+00  0.00000000E+00  0.00000000E+00
  0.00000000E+00  0.00000000E+00  0.00000000E+00
  0.00000000E+00  0.00000000E+00  0.00000000E+00
  0.00000000E+00  0.00000000E+00  0.00000000E+00
  0.00000000E+00  0.00000000E+00  0.00000000E+00
  0.00000000E+00  0.00000000E+00  0.00000000E+00
  0.00000000E+00  0.00000000E+00  0.00000000E+00
  0.00000000E+00  0.00000000E+00  0.00000000E+00
  0.00000000E+00  0.00000000E+00  0.00000000E+00
  0.00000000E+00  0.00000000E+00  0.00000000E+00
  0.00000000E+00  0.00000000E+00  0.00000000E+00
  0.00000000E+00  0.00000000E+00  0.00000000E+00
  0.00000000E+00  0.00000000E+00  0.00000000E+00
  0.00000000E+00  0.00000000E+00  0.00000000E+00
  0.00000000E+00  0.00000000E+00  0.00000000E+00
  0.00000000E+00  0.00000000E+00  0.00000000E+00
  0.00000000E+00  0.00000000E+00  0.00000000E+00
