Ti  O 
 1.0000000000000000
    13.0120215377706696    0.0000000000000000    0.0000000000000000
     0.0000000000000000   11.8401074605833276    0.0000000000000000
     0.0000000000000000    0.0000000000000000   30.5554804540249307
  Ti   O
  80 159
Selective dynamics
Direct
  0.0000000000000000  0.1250000000000000  0.2870754878597097   F   F   F
  0.7500000000000000  0.0000000000000000  0.2870754878597097   F   F   F
  0.2500000000000000  0.1250000000000000  0.3935377439298549   F   F   F
  0.0000000000000000  0.0000000000000000  0.3935377439298549   F   F   F
  0.0000000000000000  0.1250000000000000  0.5000000000000000   F   F   F
  0.7500000000000000  0.0000000000000000  0.5000000000000000   F   F   F
  0.2500054333156183  0.1249927833719439  0.6042816122964814   T   T   T
  0.0000043685605144  0.0000067435633548  0.6102249251502053   T   T   T
  0.0000002241612473  0.1250007122572539  0.7197636621933295   T   T   T
  0.7500008773359410  0.9999911672888493  0.7080488736492730   T   T   T
  0.0000000000000000  0.3750000000000001  0.2870754878597097   F   F   F
  0.7500000000000000  0.2500000000000000  0.2870754878597097   F   F   F
  0.2500000000000000  0.3750000000000001  0.3935377439298549   F   F   F
  0.0000000000000000  0.2500000000000000  0.3935377439298549   F   F   F
  0.0000000000000000  0.3750000000000001  0.5000000000000000   F   F   F
  0.7500000000000000  0.2500000000000000  0.5000000000000000   F   F   F
  0.2499889086960586  0.3750076866371195  0.6042824096141289   T   T   T
  0.0000031243463924  0.2499971905680883  0.6104039156617180   T   T   T
  0.9999994707591701  0.3750079377425609  0.7197561453691994   T   T   T
  0.7500006310982823  0.2499966898843045  0.7081709309545754   T   T   T
  0.0000000000000000  0.6250000000000000  0.2870754878597097   F   F   F
  0.7500000000000000  0.5000000000000000  0.2870754878597097   F   F   F
  0.2500000000000000  0.6250000000000000  0.3935377439298549   F   F   F
  0.0000000000000000  0.5000000000000000  0.3935377439298549   F   F   F
  0.0000000000000000  0.6250000000000000  0.5000000000000000   F   F   F
  0.7500000000000000  0.5000000000000000  0.5000000000000000   F   F   F
  0.2499818312328070  0.6249901187818626  0.6042816621846269   T   T   T
  0.9999509350562739  0.4999970997642966  0.6102185990972844   T   T   T
  0.0000037216056991  0.6249904153287890  0.7197610117854508   T   T   T
  0.7499999592680450  0.4999927269896605  0.7080483528120716   T   T   T
  0.0000000000000000  0.8750000000000001  0.2870754878597097   F   F   F
  0.7500000000000000  0.7500000000000001  0.2870754878597097   F   F   F
  0.2500000000000000  0.8750000000000001  0.3935377439298549   F   F   F
  0.0000000000000000  0.7500000000000001  0.3935377439298549   F   F   F
  0.0000000000000000  0.8750000000000001  0.5000000000000000   F   F   F
  0.7500000000000000  0.7500000000000001  0.5000000000000000   F   F   F
  0.2499933884372382  0.8750106292946364  0.6042817293952937   T   T   T
  0.9999994626397452  0.7500015903118772  0.6104031896704852   T   T   T
  0.9999977003006052  0.8750077754469702  0.7197616364214741   T   T   T
  0.7499999267823446  0.7499952326390701  0.7081694190991663   T   T   T
  0.5000000000000000  0.1250000000000000  0.2870754878597097   F   F   F
  0.2500000000000000  0.0000000000000000  0.2870754878597097   F   F   F
  0.7500000000000000  0.1250000000000000  0.3935377439298549   F   F   F
  0.5000000000000000  0.0000000000000000  0.3935377439298549   F   F   F
  0.5000000000000000  0.1250000000000000  0.5000000000000000   F   F   F
  0.2500000000000000  0.0000000000000000  0.5000000000000000   F   F   F
  0.7499932565343074  0.1249913659502901  0.6042822101949101   T   T   T
  0.4999944498103873  0.9999917392271569  0.6102227432255137   T   T   T
  0.5000002694596081  0.1249942833946227  0.7197606434688780   T   T   T
  0.2499988851430124  0.0000085471453991  0.7080489298915242   T   T   T
  0.5000000000000000  0.3750000000000001  0.2870754878597097   F   F   F
  0.2500000000000000  0.2500000000000000  0.2870754878597097   F   F   F
  0.7500000000000000  0.3750000000000001  0.3935377439298549   F   F   F
  0.5000000000000000  0.2500000000000000  0.3935377439298549   F   F   F
  0.5000000000000000  0.3750000000000001  0.5000000000000000   F   F   F
  0.2500000000000000  0.2500000000000000  0.5000000000000000   F   F   F
  0.7499882445915670  0.3750093817600381  0.6042800681864267   T   T   T
  0.5000070172558762  0.2500015936390794  0.6104019422532676   T   T   T
  0.5000006464175979  0.3750067547020057  0.7197615040191878   T   T   T
  0.2499994430345931  0.2500034055197357  0.7081707424830513   T   T   T
  0.5000000000000000  0.6250000000000000  0.2870754878597097   F   F   F
  0.2500000000000000  0.5000000000000000  0.2870754878597097   F   F   F
  0.7500000000000000  0.6250000000000000  0.3935377439298549   F   F   F
  0.5000000000000000  0.5000000000000000  0.3935377439298549   F   F   F
  0.5000000000000000  0.6250000000000000  0.5000000000000000   F   F   F
  0.2500000000000000  0.5000000000000000  0.5000000000000000   F   F   F
  0.7499887754689701  0.6249897009626317  0.6042822618593736   T   T   T
  0.4999232925022460  0.5000045500318019  0.6102153314349130   T   T   T
  0.4999962141377468  0.6249903206161681  0.7197589318006344   T   T   T
  0.2499989075199801  0.5000101224098105  0.7080493950286927   T   T   T
  0.5000000000000000  0.8750000000000001  0.2870754878597097   F   F   F
  0.2500000000000000  0.7500000000000001  0.2870754878597097   F   F   F
  0.7500000000000000  0.8750000000000001  0.3935377439298549   F   F   F
  0.5000000000000000  0.7500000000000001  0.3935377439298549   F   F   F
  0.5000000000000000  0.8750000000000001  0.5000000000000000   F   F   F
  0.2500000000000000  0.7500000000000001  0.5000000000000000   F   F   F
  0.7500060680736107  0.8750111879636976  0.6042810393842051   T   T   T
  0.5000073541500525  0.7499990656374392  0.6104031950279762   T   T   T
  0.5000040234692018  0.8750041718007657  0.7197618966094610   T   T   T
  0.2500021367502372  0.7500036997430717  0.7081690920958463   T   T   T
  0.8477349641203419  0.1250000000000000  0.2870754878597097   F   F   F
  0.1522650358796582  0.1250000000000000  0.2870754878597097   F   F   F
  0.0000000000000000  0.0000000000000000  0.2454551487509704   F   F   F
  0.0000000000000000  0.0000000000000000  0.3286958269684561   F   F   F
  0.0977349641203418  0.1250000000000000  0.3935377439298549   F   F   F
  0.9022650358796582  0.1250000000000000  0.3935377439298549   F   F   F
  0.2500000000000000  0.0000000000000000  0.3519174048211084   F   F   F
  0.2500000000000000  0.0000000000000000  0.4351580830386013   F   F   F
  0.8477349641203419  0.1250000000000000  0.5000000000000000   F   F   F
  0.1522650358796582  0.1250000000000000  0.5000000000000000   F   F   F
  0.0000000000000000  0.0000000000000000  0.4583796608912536   F   F   F
  0.0000000000000000  0.0000000000000000  0.5416203391087464   F   F   F
  0.0999920372436191  0.1250344876795668  0.6069860406597088   T   T   T
  0.9000136098983870  0.1250308191503430  0.6069862026062082   T   T   T
  0.2499831782163958  0.0000011032891889  0.5653458373088415   T   T   T
  0.2500013679424825  0.9999993666490292  0.6487411084956329   T   T   T
  0.8436415747122876  0.1249942275365386  0.7184882739383298   T   T   T
  0.1563614115303711  0.1249910576246299  0.7184880736232924   T   T   T
  0.0000099363794758  0.9999991100090436  0.6712903298730766   T   T   T
  0.0000006628918568  0.9999981538326920  0.7547605585282563   T   T   T
  0.8477349641203419  0.3750000000000001  0.2870754878597097   F   F   F
  0.1522650358796582  0.3750000000000001  0.2870754878597097   F   F   F
  0.0000000000000000  0.2500000000000000  0.2454551487509704   F   F   F
  0.0000000000000000  0.2500000000000000  0.3286958269684561   F   F   F
  0.0977349641203418  0.3750000000000001  0.3935377439298549   F   F   F
  0.9022650358796582  0.3750000000000001  0.3935377439298549   F   F   F
  0.2500000000000000  0.2500000000000000  0.3519174048211084   F   F   F
  0.2500000000000000  0.2500000000000000  0.4351580830386013   F   F   F
  0.8477349641203419  0.3750000000000001  0.5000000000000000   F   F   F
  0.1522650358796582  0.3750000000000001  0.5000000000000000   F   F   F
  0.0000000000000000  0.2500000000000000  0.4583796608912536   F   F   F
  0.0000000000000000  0.2500000000000000  0.5416203391087464   F   F   F
  0.0999908174588288  0.3749700816754590  0.6069854821471462   T   T   T
  0.9000164214911697  0.3749678142349313  0.6069873847883815   T   T   T
  0.2500009054830754  0.2500012542069489  0.5653516255656666   T   T   T
  0.2500015107407165  0.2499995682624978  0.6488063485603485   T   T   T
  0.8436410644292562  0.3750075225354693  0.7184881244476320   T   T   T
  0.1563577666639530  0.3750027238874948  0.7184892311106212   T   T   T
  0.0000011607641573  0.2500003211733373  0.6713482284427476   T   T   T
  0.0000007841345693  0.2499993720865732  0.7547678308025280   T   T   T
  0.8477349641203419  0.6250000000000000  0.2870754878597097   F   F   F
  0.1522650358796582  0.6250000000000000  0.2870754878597097   F   F   F
  0.0000000000000000  0.5000000000000000  0.2454551487509704   F   F   F
  0.0000000000000000  0.5000000000000000  0.3286958269684561   F   F   F
  0.0977349641203418  0.6250000000000000  0.3935377439298549   F   F   F
  0.9022650358796582  0.6250000000000000  0.3935377439298549   F   F   F
  0.2500000000000000  0.5000000000000000  0.3519174048211084   F   F   F
  0.2500000000000000  0.5000000000000000  0.4351580830386013   F   F   F
  0.8477349641203419  0.6250000000000000  0.5000000000000000   F   F   F
  0.1522650358796582  0.6250000000000000  0.5000000000000000   F   F   F
  0.0000000000000000  0.5000000000000000  0.4583796608912536   F   F   F
  0.0000000000000000  0.5000000000000000  0.5416203391087464   F   F   F
  0.0999883042772431  0.6250315254836886  0.6069859662050323   T   T   T
  0.9000165319108071  0.6250329736745840  0.6069868336100321   T   T   T
  0.2500020676893513  0.4999987846733775  0.5653451030127418   T   T   T
  0.2500023832685131  0.5000013993167129  0.6487415642247282   T   T   T
  0.8436450170275464  0.6249941948734032  0.7184878424914987   T   T   T
  0.1563586451562073  0.6249933382219887  0.7184866312980809   T   T   T
  0.0000062345510212  0.5000006581472727  0.6712906997230307   T   T   T
  0.9999973073149915  0.4999947630270125  0.7547603048522602   T   T   T
  0.8477349641203419  0.8750000000000001  0.2870754878597097   F   F   F
  0.1522650358796582  0.8750000000000001  0.2870754878597097   F   F   F
  0.0000000000000000  0.7500000000000001  0.2454551487509704   F   F   F
  0.0000000000000000  0.7500000000000001  0.3286958269684561   F   F   F
  0.0977349641203418  0.8750000000000001  0.3935377439298549   F   F   F
  0.9022650358796582  0.8750000000000001  0.3935377439298549   F   F   F
  0.2500000000000000  0.7500000000000001  0.3519174048211084   F   F   F
  0.2500000000000000  0.7500000000000001  0.4351580830386013   F   F   F
  0.8477349641203419  0.8750000000000001  0.5000000000000000   F   F   F
  0.1522650358796582  0.8750000000000001  0.5000000000000000   F   F   F
  0.0000000000000000  0.7500000000000001  0.4583796608912536   F   F   F
  0.0000000000000000  0.7500000000000001  0.5416203391087464   F   F   F
  0.0999886419842082  0.8749654702877943  0.6069863604462167   T   T   T
  0.9000176487758984  0.8749662804392445  0.6069872612139985   T   T   T
  0.2499999673988910  0.7500008010442841  0.5653544075996962   T   T   T
  0.2500013747868096  0.7499993808785428  0.6488061043447053   T   T   T
  0.8436436376481388  0.8750062748523155  0.7184862929310436   T   T   T
  0.1563587739885282  0.8750054288168172  0.7184882228497979   T   T   T
  0.0000004430369942  0.7499997366126469  0.6713489922437285   T   T   T
  0.0000059001911397  0.7499976806747561  0.7547676870602104   T   T   T
  0.3477349641203419  0.1250000000000000  0.2870754878597097   F   F   F
  0.6522650358796583  0.1250000000000000  0.2870754878597097   F   F   F
  0.5000000000000000  0.0000000000000000  0.2454551487509704   F   F   F
  0.5000000000000000  0.0000000000000000  0.3286958269684561   F   F   F
  0.5977349641203418  0.1250000000000000  0.3935377439298549   F   F   F
  0.4022650358796582  0.1250000000000000  0.3935377439298549   F   F   F
  0.7500000000000000  0.0000000000000000  0.3519174048211084   F   F   F
  0.7500000000000000  0.0000000000000000  0.4351580830386013   F   F   F
  0.3477349641203419  0.1250000000000000  0.5000000000000000   F   F   F
  0.6522650358796583  0.1250000000000000  0.5000000000000000   F   F   F
  0.5000000000000000  0.0000000000000000  0.4583796608912536   F   F   F
  0.5000000000000000  0.0000000000000000  0.5416203391087464   F   F   F
  0.5999887481980956  0.1250291298778697  0.6069848856331802   T   T   T
  0.4000115319978628  0.1250293814176038  0.6069853585668854   T   T   T
  0.7500187317353391  0.9999999541461230  0.5653458727848065   T   T   T
  0.7500008480346395  0.0000010392597869  0.6487399971904910   T   T   T
  0.3436432865069688  0.1249900731086294  0.7184871780935074   T   T   T
  0.6563583730493394  0.1249939020705102  0.7184881943444088   T   T   T
  0.5000091391682612  0.9999994108205947  0.6712904777319784   T   T   T
  0.5000017902598830  0.0000036790461795  0.7547586135395162   T   T   T
  0.3477349641203419  0.3750000000000001  0.2870754878597097   F   F   F
  0.6522650358796583  0.3750000000000001  0.2870754878597097   F   F   F
  0.5000000000000000  0.2500000000000000  0.2454551487509704   F   F   F
  0.5000000000000000  0.2500000000000000  0.3286958269684561   F   F   F
  0.5977349641203418  0.3750000000000001  0.3935377439298549   F   F   F
  0.4022650358796582  0.3750000000000001  0.3935377439298549   F   F   F
  0.7500000000000000  0.2500000000000000  0.3519174048211084   F   F   F
  0.7500000000000000  0.2500000000000000  0.4351580830386013   F   F   F
  0.3477349641203419  0.3750000000000001  0.5000000000000000   F   F   F
  0.6522650358796583  0.3750000000000001  0.5000000000000000   F   F   F
  0.5000000000000000  0.2500000000000000  0.4583796608912536   F   F   F
  0.5000000000000000  0.2500000000000000  0.5416203391087464   F   F   F
  0.5999882849884722  0.3749748810027344  0.6069850417340902   T   T   T
  0.4000076862334020  0.3749650650734739  0.6069842687280573   T   T   T
  0.7500021814031943  0.2500001429802990  0.5653511271887092   T   T   T
  0.7500009365944111  0.2499998650721547  0.6488072222377370   T   T   T
  0.3436412003395395  0.3750034246394290  0.7184883812364808   T   T   T
  0.6563592553520147  0.3750109323312814  0.7184866354863642   T   T   T
  0.4999993092254281  0.2499995487363746  0.6713461308625699   T   T   T
  0.5000004782425909  0.2499998728991324  0.7547707303596650   T   T   T
  0.3477349641203419  0.6250000000000000  0.2870754878597097   F   F   F
  0.6522650358796583  0.6250000000000000  0.2870754878597097   F   F   F
  0.5000000000000000  0.5000000000000000  0.2454551487509704   F   F   F
  0.5000000000000000  0.5000000000000000  0.3286958269684561   F   F   F
  0.5977349641203418  0.6250000000000000  0.3935377439298549   F   F   F
  0.4022650358796582  0.6250000000000000  0.3935377439298549   F   F   F
  0.7500000000000000  0.5000000000000000  0.3519174048211084   F   F   F
  0.7500000000000000  0.5000000000000000  0.4351580830386013   F   F   F
  0.3477349641203419  0.6250000000000000  0.5000000000000000   F   F   F
  0.6522650358796583  0.6250000000000000  0.5000000000000000   F   F   F
  0.5000000000000000  0.5000000000000000  0.4583796608912536   F   F   F
  0.5000000000000000  0.5000000000000000  0.5416203391087464   F   F   F
  0.5999869682935464  0.6250261152150445  0.6069846328668894   T   T   T
  0.4000104786854483  0.6250362489058804  0.6069845671983721   T   T   T
  0.7500199323622220  0.5000015860747988  0.5653455003031090   T   T   T
  0.7500037431026966  0.5000004152242712  0.6487406397814733   T   T   T
  0.3436413571451142  0.6249959252064849  0.7184862252438992   T   T   T
  0.6563597606518395  0.6249948644318948  0.7184868389340353   T   T   T
  0.4999828557126250  0.5000016532645312  0.6712880945450146   T   T   T
  0.3477349641203419  0.8750000000000001  0.2870754878597097   F   F   F
  0.6522650358796583  0.8750000000000001  0.2870754878597097   F   F   F
  0.5000000000000000  0.7500000000000001  0.2454551487509704   F   F   F
  0.5000000000000000  0.7500000000000001  0.3286958269684561   F   F   F
  0.5977349641203418  0.8750000000000001  0.3935377439298549   F   F   F
  0.4022650358796582  0.8750000000000001  0.3935377439298549   F   F   F
  0.7500000000000000  0.7500000000000001  0.3519174048211084   F   F   F
  0.7500000000000000  0.7500000000000001  0.4351580830386013   F   F   F
  0.3477349641203419  0.8750000000000001  0.5000000000000000   F   F   F
  0.6522650358796583  0.8750000000000001  0.5000000000000000   F   F   F
  0.5000000000000000  0.7500000000000001  0.4583796608912536   F   F   F
  0.5000000000000000  0.7500000000000001  0.5416203391087464   F   F   F
  0.5999901909113584  0.8749674135114067  0.6069848143277496   T   T   T
  0.4000117941554817  0.8749715092971255  0.6069847505325495   T   T   T
  0.7500027332503680  0.7499983060907782  0.5653542369806837   T   T   T
  0.7500018605469101  0.7500000843202587  0.6488057647770145   T   T   T
  0.3436426474283173  0.8750055777431263  0.7184868977897001   T   T   T
  0.6563616814243599  0.8750061801114687  0.7184853075146411   T   T   T
  0.4999999427314629  0.7500011801050080  0.6713470417890008   T   T   T
  0.5000006836439040  0.7500009058835108  0.7547677518368958   T   T   T
